LAMMPS (4 May 2022)
# QMMM with NWChem for water dimer

units		real
atom_style	full

bond_style      harmonic
angle_style     harmonic

read_data       data.water.dimer
Reading data file ...
  orthogonal box = (-5 -5 -5) to (5 5 5)
  2 by 2 by 2 MPI processor grid
  reading atoms ...
  6 atoms
  scanning bonds ...
  2 = max bonds/atom
  scanning angles ...
  1 = max angles/atom
  reading bonds ...
  4 bonds
  reading angles ...
  2 angles
Finding 1-2 1-3 1-4 neighbors ...
  special bond factors lj:    0        0        0       
  special bond factors coul:  0        0        0       
     2 = max # of 1-2 neighbors
     1 = max # of 1-3 neighbors
     1 = max # of 1-4 neighbors
     2 = max # of special neighbors
  special bonds CPU = 0.001 seconds
  read_data CPU = 0.008 seconds

group           mm molecule 1
3 atoms in group mm
group           qm molecule 2
3 atoms in group qm

# remove bonds/angles in QM water molecule

delete_bonds    qm multi remove special
System init for delete_bonds ...
Deleting bonds ...
  2 total bonds, 2 turned on, 0 turned off
  1 total angles, 1 turned on, 0 turned off
  0 total dihedrals, 0 turned on, 0 turned off
  0 total impropers, 0 turned on, 0 turned off
Finding 1-2 1-3 1-4 neighbors ...
  special bond factors lj:    0        0        0       
  special bond factors coul:  0        0        0       
     2 = max # of 1-2 neighbors
     1 = max # of 1-3 neighbors
     1 = max # of 1-4 neighbors
     2 = max # of special neighbors
  special bonds CPU = 0.000 seconds

# pair style must define stand-alone short-range Coulombics

pair_style      hybrid/overlay lj/cut 6.0 coul/cut 6.0
pair_coeff      1 1 lj/cut 0.13506 3.166
pair_coeff      2 2 lj/cut 0.0 1.0
pair_coeff      * * coul/cut

velocity        all create 300.0 458732

neighbor	1.0 bin
neigh_modify	delay 0 every 1 check yes

fix		1 all nve

fix             2 qm nwchem template-water.nw water-dimer.nw                 log.pwdft.water-dimer O H
fix_modify      2 energy yes

compute         1 all pair/local dist
compute         2 all reduce max c_1

variable        fxabs atom abs(fx)
variable        fyabs atom abs(fy)
variable        fzabs atom abs(fz)
variable        qabs atom abs(q)
compute         3 all reduce max v_fxabs v_fyabs v_fzabs v_qabs

dump            1 all custom 1 dump.water.dimer.qmmm id x y z q fx fy fz
dump_modify     1 sort id format float "%20.16g"

timestep        0.1

thermo_style    custom step cpu temp ke evdwl ecoul epair emol elong f_2 pe etotal press                 c_2 c_3[*]

thermo          1

run		100
Generated 0 of 1 mixed pair_coeff terms from geometric mixing rule
Neighbor list info ...
  update every 1 steps, delay 0 steps, check yes
  max neighbors/atom: 2000, page size: 100000
  master list distance cutoff = 7
  ghost atom cutoff = 7
  binsize = 3.5, bins = 3 3 3
  3 neighbor lists, perpetual/occasional/extra = 2 1 0
  (1) pair lj/cut, perpetual, skip from (2)
      attributes: half, newton on
      pair build: skip
      stencil: none
      bin: none
  (2) pair coul/cut, perpetual
      attributes: half, newton on
      pair build: half/bin/newton
      stencil: half/bin/3d
      bin: standard
  (3) compute pair/local, occasional, copy from (2)
      attributes: half, newton on
      pair build: copy
      stencil: none
      bin: none
Per MPI rank memory allocation (min/avg/max) = 7.608 | 8.391 | 8.875 Mbytes
   Step          CPU            Temp          KinEng         E_vdwl         E_coul         E_pair         E_mol          E_long          f_2           PotEng         TotEng         Press           c_2           c_3[1]         c_3[2]         c_3[3]         c_3[4]    
         0   0              300            4.4712151      1.4460769     -156.41522     -154.96914      1.5216554      0             -10694.103     -10847.551     -10843.079     -1340.3569      3.6506239      65.178593      52.412068      222.20969      0.8476       
         1   7.9635392      279.1936       4.1611154      1.4378132     -156.07977     -154.64196      1.74291        0             -10694.371     -10847.27      -10843.109     -1205.0695      3.6464367      64.928115      51.883891      222.63383      0.8476       
         2   17.078844      271.867        4.0519194      1.4301758     -155.93775     -154.50757      1.9798148      0             -10694.501     -10847.028     -10842.977     -1074.2697      3.642344       64.427572      51.313909      222.47363      0.8476       
         3   26.133342      278.19509      4.1462335      1.4231658     -155.97731     -154.55414      2.22745        0             -10694.522     -10846.849     -10842.703     -948.04686      3.6383646      63.750928      50.620854      222.01948      0.8476       
         4   35.011228      298.26363      4.4453362      1.4167839     -156.22381     -154.80703      2.4806908      0             -10694.411     -10846.737     -10842.292     -827.34584      3.6345172      62.894316      49.820862      221.10162      0.8476       
         5   46.471117      332.08118      4.9493546      1.4110296     -156.78816     -155.37713      2.7343085      0             -10694.085     -10846.728     -10841.779     -715.06525      3.6308201      61.859426      48.92674       220.9264       0.8476       
         6   59.396825      379.59473      5.6574989      1.405904      -157.60698     -156.20108      2.9830734      0             -10693.571     -10846.789     -10841.131     -610.10907      3.6272914      60.654822      47.924487      219.10495      0.8476       
         7   72.486458      440.6387       6.5673014      1.4014044     -158.56073     -157.15932      3.2218577      0             -10692.939     -10846.877     -10840.309     -510.12526      3.6239485      59.250638      47.89597       217.81619      0.8476       
         8   86.305839      514.90849      7.674222       1.3975292     -159.79848     -158.40095      3.4457374      0             -10692.07      -10847.025     -10839.351     -418.94692      3.6208081      57.650782      50.155722      215.77533      0.8476       
         9   101.22114      601.99417      8.9721514      1.394275      -161.37431     -159.98004      3.6500885      0             -10690.904     -10847.234     -10838.262     -338.26249      3.6178864      55.900553      52.185203      212.91874      0.8476       
        10   116.2172       701.29997      10.45221       1.3916367     -163.0733      -161.68166      3.8306772      0             -10689.572     -10847.423     -10836.971     -263.69518      3.6151991      53.89421       53.972978      210.02036      0.8476       
        11   131.32403      811.98677      12.101892      1.3896089     -165.0332      -163.6436       3.9837448      0             -10687.946     -10847.606     -10835.504     -199.05426      3.6127609      51.65995       55.51073       206.46063      0.8476       
        12   147.10768      933.0438       13.906132      1.3881845     -167.27195     -165.88377      4.1060803      0             -10685.983     -10847.76      -10833.854     -145.48743      3.610586       49.223569      56.790642      202.54886      0.8476       
        13   162.9575       1063.2079      15.846104      1.3873553     -169.81309     -168.42574      4.1950837      0             -10683.626     -10847.857     -10832.011     -104.40643      3.6086877      48.215617      57.806155      197.72471      0.8476       
        14   178.81479      1200.8925      17.898162      1.3871111     -172.67378     -171.28667      4.2488165      0             -10680.822     -10847.86      -10829.962     -77.262191      3.6070788      48.77664       58.551924      191.99683      0.8476       
        15   194.70921      1344.1851      20.033802      1.3874392     -175.87525     -174.48782      4.2660398      0             -10677.505     -10847.727     -10827.693     -65.787806      3.6057708      49.11919       59.023911      185.18753      0.8476       
        16   210.54171      1490.7704      22.218516      1.3883245     -179.43994     -178.05162      4.2462383      0             -10673.604     -10847.409     -10825.191     -71.986058      3.6047748      49.241041      59.219386      177.08061      0.8476       
        17   226.33039      1637.8639      24.410806      1.3897484     -183.39572     -182.00598      4.1896305      0             -10669.034     -10846.851     -10822.44      -98.273137      3.6041009      49.141005      59.136969      167.39749      0.8476       
        18   242.06042      1782.1304      26.56096       1.3916882     -187.76796     -186.37628      4.0971639      0             -10663.705     -10845.985     -10819.424     -147.35289      3.6037583      48.818943      58.776598      155.76952      0.8476       
        19   258.00548      1919.6018      28.609842      1.3941165     -192.58607     -191.19196      3.9704965      0             -10657.516     -10844.738     -10816.128     -222.42286      3.6037551      48.275769      58.139569      141.77074      0.8476       
        20   275.35265      2045.863       30.491645      1.3969999     -197.88269     -196.48569      3.8119643      0             -10650.359     -10843.032     -10812.541     -327.02978      3.6040989      47.513375      57.228513      126.9171       0.8476       
        21   292.73884      2155.5236      32.126032      1.4003018     -203.67404     -202.27373      3.6245353      0             -10642.115     -10840.764     -10808.638     -464.97891      3.6047956      46.534921      56.047385      106.59274      0.8476       
        22   310.16175      2242.2039      33.41792       1.4039726     -209.98708     -208.58311      3.4117515      0             -10632.669     -10837.84      -10804.422     -640.96628      3.6058506      45.344415      54.601468      82.056851      0.8476       
        23   327.46334      2299.208       34.267512      1.4079518     -216.83411     -215.42616      3.1776593      0             -10621.915     -10834.163     -10799.896     -859.53826      3.6072682      43.946948      52.89733       52.630632      0.8476       
        24   344.8631       2319.6379      34.572         1.4121662     -224.21449     -222.80232      2.9267307      0             -10609.769     -10829.645     -10795.073     -1125.053       3.6090515      42.348625      50.942806      43.509548      0.8476       
        25   362.21893      2297.0314      34.235071      1.4165282     -232.10781     -230.69129      2.6637754      0             -10596.192     -10824.22      -10789.985     -1441.0888      3.6112028      43.768937      48.746962      54.124553      0.8476       
        26   379.50446      2226.343       33.181528      1.4209344     -240.46944     -239.0485       2.3938473      0             -10581.214     -10817.868     -10784.687     -1809.6724      3.6137226      55.730219      56.26722       101.30713      0.8476       
        27   395.57396      2104.976       31.372668      1.425265      -249.19273     -247.76747      2.1221456      0             -10564.986     -10810.632     -10779.259     -2229.713       3.6166108      69.232431      73.121566      154.60725      0.8476       
        28   411.83487      1934.9262      28.838238      1.4293802     -258.18366     -256.75428      1.8539135      0             -10547.781     -10802.681     -10773.843     -2697.2456      3.6198658      83.915478      91.252147      212.11925      0.8476       
        29   427.94825      1724.1741      25.697177      1.4331317     -267.24705     -265.81391      1.5943358      0             -10530.069     -10794.288     -10768.591     -3201.8785      3.6234846      99.465881      110.21119      272.2629       0.8476       
        30   443.97701      1487.0138      22.162528      1.4363634     -276.15597     -274.7196       1.3484386      0             -10512.501     -10785.873     -10763.71      -3728.1549      3.6274626      115.24433      129.13136      332.10381      0.8476       
        31   459.99058      1244.1016      18.542152      1.4389185     -284.63634     -283.19742      1.1209909      0             -10495.907     -10777.983     -10759.441     -4255.1643      3.6317941      130.37974      146.88911      387.91422      0.85122875   
        32   475.2309       1020.5477      15.210295      1.4406492     -292.38614     -290.94549      0.91641266     0             -10481.225     -10771.254     -10756.043     -4758.2791      3.6364718      143.82706      162.21057      435.57619      0.85860515   
        33   490.70704      842.45939      12.556057      1.4414268     -299.10632     -297.66489      0.73868922     0             -10469.397     -10766.323     -10753.767     -5212.2138      3.6414866      154.44721      173.74254      470.80473      0.86512891   
        34   504.70323      732.17448      10.912365      1.4411542     -304.29501     -302.85386      0.59129405     0             -10461.394     -10763.657     -10752.744     -5589.5656      3.6468283      161.31844      180.52039      490.80714      0.8702794    
        35   517.97102      703.81011      10.489621      1.4397743     -308.13708     -306.69731      0.477122       0             -10457.485     -10763.706     -10753.216     -5884.1768      3.6524849      163.47558      181.56002      492.73096      0.8744856    
        36   531.11756      760.03073      11.327536      1.4372731     -310.57613     -309.13886      0.39843348     0             -10457.827     -10766.568     -10755.24      -6092.1284      3.6584431      160.54776      176.62307      476.23104      0.8777428    
        37   544.61935      891.25176      13.283261      1.433683      -311.57382     -310.14014      0.35681116     0             -10462.237     -10772.02      -10758.737     -6218.2107      3.6646876      152.68771      166.11314      443.04619      0.87998416   
        38   559.05607      1077.968       16.066089      1.4290793     -311.13199     -309.70291      0.35312963     0             -10470.212     -10779.562     -10763.496     -6274.8468      3.6712019      140.48936      150.94127      396.48594      0.8811141    
        39   574.10271      1295.1047      19.302306      1.4235712     -309.42593     -308.00236      0.38753854     0             -10480.962     -10788.577     -10769.274     -6282.1799      3.6779681      124.83354      132.28969      340.56233      0.88123026   
        40   589.09934      1516.8523      22.607242      1.4172912     -306.71972     -305.30243      0.45945957     0             -10493.576     -10798.419     -10775.812     -6262.853       3.6849668      106.77903      111.45546      279.42956      0.88052774   
        41   604.88421      1720.7855      25.646674      1.4103831     -303.30009     -301.88971      0.56759719     0             -10507.177     -10808.5       -10782.853     -6237.6983      3.6921772      96.475116      89.745768      217.0457       0.8792327    
        42   620.85225      1890.3414      28.173744      1.4029913     -299.40019     -297.9972       0.70996312     0             -10521.042     -10818.329     -10790.155     -6222.3155      3.6995773      99.144511      70.014579      156.51237      0.87751226   
        43   637.10877      2015.6457      30.041284      1.3952552     -295.22892     -293.83367      0.88391378     0             -10534.602     -10827.551     -10797.51      -6227.1877      3.7071437      100.76473      70.562027      100.17025      0.87552632   
        44   653.08943      2093.078       31.19534       1.3873019     -290.94963     -289.56233      1.0862002      0             -10547.471     -10835.947     -10804.752     -6257.497       3.7148517      101.24445      70.328176      49.415938      0.87340323   
        45   669.23915      2123.8969      31.654666      1.3792434     -286.68805     -285.3088       1.3130295      0             -10559.414     -10843.409     -10811.755     -6314.2519      3.7226755      100.52478      69.286035      45.668211      0.87124886   
        46   685.19705      2112.6399      31.486891      1.3711754     -282.53593     -281.16475      1.5601365      0             -10570.314     -10849.919     -10818.432     -6395.4678      3.7305881      99.328609      70.830069      48.909823      0.8691468    
        47   700.95723      2065.6535      30.786604      1.3631768     -278.55781     -277.19463      1.8228644      0             -10580.14      -10855.512     -10824.726     -6497.3293      3.7385614      109.54698      81.422448      77.94289       0.86716204   
        48   717.23951      1989.9498      29.658312      1.3553119     -274.79068     -273.43537      2.0962529      0             -10588.921     -10860.26      -10830.602     -6614.9691      3.7465665      117.07385      89.501173      103.68602      0.8653337    
        49   733.03677      1892.4346      28.20494       1.3476311     -271.25475     -269.90712      2.3751324      0             -10596.717     -10864.249     -10836.044     -6743.2471      3.7545737      122.12317      95.318561      124.77471      0.86368557   
        50   749.0192       1779.4528      26.521053      1.3401737     -267.95951     -266.61934      2.6542218      0             -10603.602     -10867.567     -10841.046     -6877.2052      3.7625527      124.95672      99.155658      141.87452      0.86223115   
        51   764.95048      1656.5819      24.68978       1.3329692     -264.90585     -263.57288      2.9282288      0             -10609.656     -10870.301     -10845.611     -7012.263       3.7704731      125.86312      101.30091      155.60795      0.86097351   
        52   780.77673      1528.5886      22.782161      1.3260394     -262.09191     -260.76587      3.1919501      0             -10614.958     -10872.532     -10849.749     -7144.3881      3.7783039      125.13271      102.03075      166.52439      0.85991242   
        53   796.6081       1399.4809      20.857934      1.3193996     -259.51286     -258.19346      3.4403709      0             -10619.577     -10874.33      -10853.472     -7270.062       3.7860148      123.04881      101.6034       175.09813      0.85904267   
        54   812.65306      1272.6064      18.966989      1.3130602     -257.16482     -255.85176      3.6687594      0             -10623.576     -10875.759     -10856.792     -7386.3076      3.7935754      119.87389      100.24935      181.72412      0.85835951   
        55   828.70467      1150.7626      17.151023      1.3070275     -255.04377     -253.73674      3.8727579      0             -10627.011     -10876.875     -10859.724     -7490.5962      3.8009564      115.8464       98.171764      188.07046      0.85785667   
        56   843.84601      1036.2751      15.444697      1.3013049     -253.14077     -251.83947      4.0484647      0             -10629.934     -10877.725     -10862.28      -7580.689       3.808129       111.20629      95.583152      193.70694      0.85751789   
        57   858.87222      931.14889      13.87789       1.2958942     -251.4695      -250.17361      4.1925097      0             -10632.373     -10878.354     -10864.476     -7655.1676      3.8150656      106.04465      92.526617      198.2226       0.85736384   
        58   873.88225      837.12557      12.476562      1.2907944     -250.02253     -248.73173      4.3021181      0             -10634.368     -10878.798     -10866.322     -7712.4004      3.82174        100.5832       89.193613      201.81155      0.8573781    
        59   888.93394      755.67941      11.262684      1.2860035     -248.80491     -247.5189       4.3751639      0             -10635.947     -10879.09      -10867.828     -7751.3151      3.8281275      94.9416        85.841238      204.60376      0.85756429   
        60   904.09531      688.08468      10.255249      1.2815185     -247.82053     -246.53901      4.4102108      0             -10637.129     -10879.258     -10869.002     -7771.0436      3.8342051      96.315965      87.779469      206.69536      0.8579228    
        61   918.009        635.41522      9.4702604      1.2773358     -247.19208     -245.91475      4.40654        0             -10637.882     -10879.39      -10869.92      -7773.6648      3.8399515      98.744368      89.446547      208.27648      0.85866449   
        62   931.98076      598.60951      8.9217062      1.273451      -246.69429     -245.42084      4.3641647      0             -10638.318     -10879.375     -10870.453     -7753.4928      3.8453474      100.85001      90.809159      209.16215      0.85937978   
        63   945.62659      578.45867      8.621377       1.2698603     -246.4367      -245.16684      4.2838301      0             -10638.399     -10879.282     -10870.661     -7712.6898      3.8503751      102.64344      91.89519       209.47574      0.86025227   
        64   959.31981      575.55449      8.578093       1.2665595     -246.44284     -245.17628      4.1670005      0             -10638.117     -10879.126     -10870.548     -7651.6814      3.8550194      104.13391      92.71503       209.2432       0.86131194   
        65   972.8238       590.2997       8.7978564      1.2635443     -246.72839     -245.46484      4.0158316      0             -10637.463     -10878.912     -10870.114     -7570.9345      3.8592668      105.31961      93.267808      208.46207      0.86257322   
        66   986.56015      622.89619      9.2836762      1.2608102     -247.31065     -246.04984      3.8331308      0             -10636.421     -10878.638     -10869.354     -7471.1779      3.863106       106.19065      93.545016      207.11202      0.8640516    
        67   999.86608      673.32374      10.035251      1.2583521     -248.20988     -246.95153      3.6223041      0             -10634.969     -10878.298     -10868.263     -7353.4435      3.8665277      106.72937      93.530626      205.1543       0.8657656    
        68   1014.0071      741.32087      11.048683      1.2561648     -249.45984     -248.20368      3.3872926      0             -10633.048     -10877.864     -10866.815     -7219.3161      3.8695246      106.93395      93.219282      202.57369      0.86775085   
        69   1028.4415      826.3417       12.315838      1.2542415     -251.07559     -249.82135      3.132498       0             -10630.664     -10877.353     -10865.037     -7070.2205      3.8720916      106.72214      92.543786      199.22005      0.87001927   
        70   1043.6944      927.50667      13.823606      1.2525754     -253.11792     -251.86535      2.8626995      0             -10627.717     -10876.719     -10862.896     -6908.922       3.8742253      106.08637      91.488315      195.04256      0.8726447    
        71   1058.734       1043.5374      15.552934      1.2511579     -255.56753     -254.31637      2.5829638      0             -10624.197     -10875.931     -10860.378     -6736.688       3.8759245      104.90781      89.944522      189.76857      0.87556881   
        72   1073.7507      1172.6691      17.477519      1.2499794     -258.4777      -257.22772      2.298549       0             -10620.01      -10874.939     -10857.462     -6556.831       3.8771893      103.10661      87.836026      183.21855      0.87884845   
        73   1088.7494      1312.5696      19.562604      1.2490288     -261.88764     -260.63861      2.0148053      0             -10615.065     -10873.689     -10854.126     -6372.7736      3.878022       100.558        85.046678      175.11752      0.88251321   
        74   1104.8293      1460.2565      21.763736      1.2482919     -265.84323     -264.59494      1.7370738      0             -10609.255     -10872.113     -10850.349     -6188.5736      3.8784261      97.121531      81.449419      165.18221      0.88659941   
        75   1121.0167      1611.8828      24.023582      1.247752      -270.38188     -269.13413      1.4705854      0             -10602.46      -10870.124     -10846.1       -6008.7148      3.8784071      92.556977      76.813113      152.83011      0.89112269   
        76   1137.1103      1762.5655      26.269365      1.2473872     -275.55354     -274.30615      1.2203616      0             -10594.54      -10867.626     -10841.356     -5838.6968      3.8779715      90.384772      70.923091      137.57808      0.89611643   
        77   1152.9983      1906.3234      28.41194       1.2471697     -281.40624     -280.15907      0.99111937     0             -10585.336     -10864.504     -10836.092     -5684.7397      3.8771276      93.025527      63.500478      118.77999      0.90160675   
        78   1168.9924      2035.9426      30.34379       1.2470642     -287.98344     -286.73637      0.78718145     0             -10574.682     -10860.631     -10830.287     -5553.8063      3.8758846      95.400108      60.435713      95.681996      0.90761054   
        79   1185.1206      2142.9841      31.939142      1.2470267     -295.32188     -294.07485      0.61239432     0             -10562.404     -10855.866     -10823.927     -5453.5424      3.8742532      97.505618      61.539466      67.464181      0.9141359    
        80   1201.0566      2217.9978      33.05715       1.2470021     -303.44501     -302.19801      0.47005494     0             -10548.341     -10850.068     -10817.011     -5391.9722      3.8741579      99.333218      62.464688      41.932314      0.92117689   
        81   1216.7261      2251.0684      33.550037      1.2469225     -312.35465     -311.10773      0.36284788     0             -10532.366     -10843.111     -10809.561     -5376.9308      3.8751842      100.86789      63.203625      54.051571      0.9287087    
        82   1232.6607      2232.8159      33.278         1.2467057     -322.00783     -320.76113      0.29279394     0             -10514.437     -10834.905     -10801.627     -5414.8469      3.8758879      102.08374      73.851092      103.00759      0.9366648    
        83   1248.7032      2155.9604      32.132543      1.246254      -332.31447     -331.06822      0.26121117     0             -10494.629     -10825.436     -10793.303     -5509.6177      3.8762714      126.62887      97.566268      159.04319      0.94494781   
        84   1264.5344      2017.4519      30.068205      1.2454541     -343.1221      -341.87664      0.26868919     0             -10473.205     -10814.813     -10784.745     -5660.8038      3.876338       155.35646      123.97958      221.42746      0.95342357   
        85   1280.5484      1820.8834      27.138537      1.2441795     -354.19785     -352.95367      0.31507711     0             -10450.676     -10803.314     -10776.176     -5861.5683      3.8760923      186.15438      152.36407      288.43751      0.96191146   
        86   1296.5803      1578.6098      23.527679      1.2422939     -365.22196     -363.97967      0.39948537     0             -10427.847     -10791.427     -10767.9       -6097.0791      3.8755402      217.65338      181.4766       357.19116      0.97018787   
        87   1311.7423      1312.6414      19.563674      1.2396586     -375.7836      -374.54394      0.52030148     0             -10405.834     -10779.858     -10760.294     -6343.7995      3.8746894      247.89056      209.61609      423.98975      0.97798259   
        88   1326.7781      1053.5275      15.701827      1.236141      -385.42523     -384.18909      0.67521937     0             -10385.985     -10769.499     -10753.797     -6571.2576      3.8735493      274.44676      234.46238      483.2272       0.98502605   
        89   1341.8473      836.35996      12.465151      1.2316279     -393.65565     -392.42403      0.86128191     0             -10369.752     -10761.315     -10748.85      -6745.0607      3.8721312      294.69969      253.74767      530.07201      0.99103027   
        90   1356.0045      694.2772       10.347542      1.226036      -399.9031      -398.67706      1.0749357      0             -10358.556     -10756.158     -10745.811     -6830.2443      3.8704491      306.66316      265.56814      559.82289      0.99558422   
        91   1370.3127      651.34531      9.7076832      1.2193228     -404.07892     -402.8596       1.3120976      0             -10353.19      -10754.737     -10745.029     -6809.0025      3.8685194      307.96838      268.06491      569.40825      0.99880989   
        92   1384.8197      716.48198      10.678483      1.2114928     -405.96895     -404.75745      1.568231       0             -10354.088     -10757.278     -10746.599     -6670.9128      3.8663614      298.04559      260.64063      557.29708      1.0005428    
        93   1399.7586      880.84268      13.128124      1.2026        -405.7461      -404.5435       1.8384312      0             -10360.915     -10763.62      -10750.492     -6426.4345      3.8639975      276.91675      243.34984      524.06935      1.0009681    
        94   1414.7873      1119.8631      16.690495      1.1927448     -403.47609     -402.28335      2.1175187      0             -10372.933     -10773.099     -10756.409     -6094.2201      3.8614533      246.6651       218.13268      473.75775      0.99999914   
        95   1430.8978      1399.1305      20.852711      1.1820635     -399.6557      -398.47364      2.4001373      0             -10388.792     -10784.866     -10764.013     -5709.4225      3.8587581      209.27161      186.82634      410.83336      0.99799645   
        96   1447.0059      1681.5637      25.06211       1.170717      -394.75039     -393.57968      2.6808565      0             -10407.042     -10797.941     -10772.879     -5308.2406      3.855945       166.39347      151.141        339.64393      0.99524025   
        97   1462.828       1934.042       28.82506       1.15888       -389.23707     -388.07819      2.954276       0             -10426.271     -10811.395     -10782.57      -4924.3852      3.8530512      120.70224      113.46879      265.43619      0.99202725   
        98   1478.6255      2131.8683      31.773472      1.1467284     -383.5404      -382.39367      3.2151297      0             -10445.288     -10824.467     -10792.693     -4584.5886      3.8501178      74.159255      75.632628      192.31812      0.98863238   
        99   1494.5018      2260.3492      33.688358      1.1344307     -378.00308     -376.86865      3.4583878      0             -10463.2       -10836.61      -10802.922     -4306.8537      3.8471903      37.781342      50.321111      123.23383      0.98528822   
       100   1510.189       2314.1789      34.490639      1.122141      -372.87682     -371.75468      3.6793544      0             -10479.42      -10847.495     -10813.004     -4100.6713      3.8443182      39.43071       52.360106      72.144107      0.98217642   
Loop time of 1510.19 on 8 procs for 100 steps with 6 atoms

Performance: 0.001 ns/day, 41949.696 hours/ns, 0.066 timesteps/s
99.9% CPU use with 8 MPI tasks x no OpenMP threads

MPI task timing breakdown:
Section |  min time  |  avg time  |  max time  |%varavg| %total
---------------------------------------------------------------
Pair    | 0.00055038 | 0.00070352 | 0.00088492 |   0.0 |  0.00
Bond    | 0.00015422 | 0.00022842 | 0.000407   |   0.0 |  0.00
Neigh   | 0          | 0          | 0          |   0.0 |  0.00
Comm    | 0.0023861  | 0.0025905  | 0.002668   |   0.2 |  0.00
Output  | 0.014997   | 0.015145   | 0.015297   |   0.1 |  0.00
Modify  | 1510.2     | 1510.2     | 1510.2     |   0.0 |100.00
Other   |            | 0.0005933  |            |       |  0.00

Nlocal:           0.75 ave           2 max           0 min
Histogram: 3 0 0 0 0 4 0 0 0 1
Nghost:          43.25 ave          48 max          38 min
Histogram: 1 2 1 0 0 0 0 0 0 4
Neighs:           1.75 ave           3 max           0 min
Histogram: 3 0 0 0 0 0 1 0 0 4

Total # of neighbors = 14
Ave neighs/atom = 2.3333333
Ave special neighs/atom = 1
Neighbor list builds = 0
Dangerous builds = 0
Total wall time: 0:25:56
