LAMMPS (4 May 2022)
# MM for water dimer

units		real
atom_style	full

bond_style      harmonic
angle_style     harmonic

read_data       data.water.dimer
Reading data file ...
  orthogonal box = (-5 -5 -5) to (5 5 5)
  1 by 1 by 1 MPI processor grid
  reading atoms ...
  6 atoms
  scanning bonds ...
  2 = max bonds/atom
  scanning angles ...
  1 = max angles/atom
  reading bonds ...
  4 bonds
  reading angles ...
  2 angles
Finding 1-2 1-3 1-4 neighbors ...
  special bond factors lj:    0        0        0       
  special bond factors coul:  0        0        0       
     2 = max # of 1-2 neighbors
     1 = max # of 1-3 neighbors
     1 = max # of 1-4 neighbors
     2 = max # of special neighbors
  special bonds CPU = 0.000 seconds
  read_data CPU = 0.006 seconds

group           mm molecule 1
3 atoms in group mm
group           qm molecule 2
3 atoms in group qm

# pair style must define stand-alone short-range Coulombics

pair_style      lj/cut/coul/cut 6.0
pair_coeff      1 1 0.13506 3.166
pair_coeff      2 2 0.0 1.0

velocity        all create 300.0 458732

neighbor	1.0 bin
neigh_modify	delay 0 every 1 check yes

fix		1 all nve

compute         1 all pair/local dist
compute         2 all reduce max c_1

variable        fxabs atom abs(fx)
variable        fyabs atom abs(fy)
variable        fzabs atom abs(fz)
variable        qabs atom abs(q)
compute         3 all reduce max v_fxabs v_fyabs v_fzabs v_qabs

dump            1 all custom 1 dump.water.dimer.mm id x y z q fx fy fz
dump_modify     1 sort id format float "%20.16g"

timestep        0.01

thermo_style    custom step cpu temp ke evdwl ecoul epair emol elong pe etotal press                 c_2 c_3[*]

thermo          1

run		1000
Generated 1 of 1 mixed pair_coeff terms from geometric mixing rule
Neighbor list info ...
  update every 1 steps, delay 0 steps, check yes
  max neighbors/atom: 2000, page size: 100000
  master list distance cutoff = 7
  ghost atom cutoff = 7
  binsize = 3.5, bins = 3 3 3
  2 neighbor lists, perpetual/occasional/extra = 1 1 0
  (1) pair lj/cut/coul/cut, perpetual
      attributes: half, newton on
      pair build: half/bin/newton
      stencil: half/bin/3d
      bin: standard
  (2) compute pair/local, occasional, copy from (1)
      attributes: half, newton on
      pair build: copy
      stencil: none
      bin: none
Per MPI rank memory allocation (min/avg/max) = 7.814 | 7.814 | 7.814 Mbytes
   Step          CPU            Temp          KinEng         E_vdwl         E_coul         E_pair         E_mol          E_long         PotEng         TotEng         Press           c_2           c_3[1]         c_3[2]         c_3[3]         c_3[4]    
         0   0              300            4.4712151      1.4460769     -8.6451874     -7.1991105      3.3067213      0             -3.8923892      0.57882592     3501.9716      3.6506239      29.132518      26.894893      39.12903       0.8476       
         1   0.000126736    298.52606      4.4492474      1.4452197     -8.6445806     -7.1993609      3.3289396      0             -3.8704212      0.57882617     3514.0369      3.6502023      29.15697       27.250924      39.035638      0.8476       
         2   0.000260894    297.04847      4.4272253      1.4443631     -8.6440088     -7.1996457      3.3512468      0             -3.8483989      0.57882643     3525.9245      3.6497826      29.180031      27.605803      38.940321      0.8476       
         3   0.00039736     295.5675       4.4051529      1.443507      -8.643472      -7.1999649      3.3736387      0             -3.8263262      0.57882668     3537.6339      3.6493647      29.2017        27.959514      38.843081      0.8476       
         4   0.000529252    294.08343      4.3830342      1.4426515     -8.6429701     -7.2003186      3.3961114      0             -3.8042073      0.57882694     3549.165       3.6489487      29.221975      28.312038      38.743925      0.8476       
         5   0.000663413    292.59652      4.3608733      1.4417965     -8.6425032     -7.2007068      3.4186607      0             -3.7820461      0.57882719     3560.5175      3.6485346      29.240854      28.663359      38.642857      0.8476       
         6   0.000796807    291.10706      4.3386742      1.440942      -8.6420714     -7.2011294      3.4412826      0             -3.7598468      0.57882745     3571.6911      3.6481224      29.258338      29.013459      38.539881      0.8476       
         7   0.000935799    289.61531      4.3164412      1.4400882     -8.6416747     -7.2015866      3.4639731      0             -3.7376135      0.57882771     3582.6854      3.6477121      29.274424      29.362321      38.435002      0.8476       
         8   0.001058073    288.12156      4.2941783      1.4392349     -8.6413131     -7.2020782      3.486728       0             -3.7153503      0.57882796     3593.5003      3.6473038      29.289111      29.709929      38.328225      0.8476       
         9   0.001175968    286.62608      4.2718895      1.4383822     -8.6409867     -7.2026044      3.5095431      0             -3.6930613      0.57882822     3604.1355      3.6468974      29.302398      30.056265      38.219555      0.8476       
        10   0.001299617    285.12915      4.2495792      1.4375302     -8.6406954     -7.2031652      3.5324145      0             -3.6707507      0.57882848     3614.5908      3.646493       29.314284      30.401313      38.108997      0.8476       
        11   0.001418645    283.63104      4.2272513      1.4366788     -8.6404393     -7.2037605      3.5553379      0             -3.6484226      0.57882874     3624.8659      3.6460906      29.324768      30.745054      37.996556      0.8476       
        12   0.001535488    282.13204      4.20491        1.435828      -8.6402183     -7.2043904      3.5783093      0             -3.626081       0.578829       3634.9606      3.6456902      29.333849      31.087474      37.882238      0.8476       
        13   0.00165211     280.63241      4.1825595      1.4349779     -8.6400327     -7.2050548      3.6013245      0             -3.6037303      0.57882926     3644.8746      3.6452919      29.341526      31.428554      38.218704      0.8476       
        14   0.001781102    279.13244      4.160204       1.4341284     -8.6398822     -7.2057538      3.6243794      0             -3.5813745      0.57882952     3654.6079      3.6448957      29.347799      31.768279      38.625535      0.8476       
        15   0.001914688    277.63242      4.1378475      1.4332797     -8.6397671     -7.2064874      3.6474697      0             -3.5590177      0.57882978     3664.1601      3.6445015      29.352667      32.10663       39.030075      0.8476       
        16   0.0020353      276.1326       4.1154942      1.4324316     -8.6396872     -7.2072556      3.6705914      0             -3.5366641      0.57883003     3673.5311      3.6441094      29.356129      32.443593      39.432305      0.8476       
        17   0.002153847    274.63328      4.0931483      1.4315842     -8.6396426     -7.2080584      3.6937404      0             -3.514318       0.57883029     3682.7207      3.6437194      29.358184      32.779151      39.832206      0.8476       
        18   0.002301229    273.13474      4.0708139      1.4307376     -8.6396333     -7.2088957      3.7169124      0             -3.4919834      0.57883055     3691.7288      3.6433315      29.358833      33.113286      40.229759      0.8476       
        19   0.002419826    271.63725      4.0484952      1.4298917     -8.6396594     -7.2097677      3.7401033      0             -3.4696644      0.57883081     3700.5551      3.6429458      29.358074      33.445983      40.624945      0.8476       
        20   0.002535612    270.14109      4.0261964      1.4290466     -8.6397208     -7.2106743      3.7633089      0             -3.4473653      0.57883107     3709.1996      3.6425623      29.355908      33.777225      41.017745      0.8476       
        21   0.002661021    268.64654      4.0039216      1.4282022     -8.6398176     -7.2116154      3.7865252      0             -3.4250902      0.57883133     3717.6621      3.6421809      29.352333      34.106996      41.40814       0.8476       
        22   0.002789545    267.15388      3.9816749      1.4273585     -8.6399497     -7.2125911      3.8097478      0             -3.4028433      0.57883159     3725.9424      3.6418018      29.556829      34.43528       41.796111      0.8476       
        23   0.002913471    265.66339      3.9594605      1.4265157     -8.6401172     -7.2136014      3.8329728      0             -3.3806287      0.57883185     3734.0404      3.6414249      29.814505      34.76206       42.181641      0.8476       
        24   0.003030939    264.17534      3.9372826      1.4256737     -8.64032       -7.2146463      3.8561958      0             -3.3584505      0.57883211     3741.956       3.6410502      30.070963      35.087321      42.56471       0.8476       
        25   0.003155374    262.69002      3.9151453      1.4248325     -8.6405582     -7.2157258      3.8794129      0             -3.3363129      0.57883237     3749.6892      3.6406777      30.326192      35.411047      42.9453        0.8476       
        26   0.003273967    261.2077       3.8930527      1.4239921     -8.6408319     -7.2168398      3.9026197      0             -3.3142201      0.57883263     3757.2397      3.6403075      30.580177      35.733222      43.323393      0.8476       
        27   0.003389461    259.72866      3.8710089      1.4231525     -8.6411409     -7.2179883      3.9258123      0             -3.2921761      0.57883288     3764.6075      3.6399397      30.832908      36.053829      43.698972      0.8476       
        28   0.003511087    258.25317      3.8490182      1.4223138     -8.6414853     -7.2191714      3.9489864      0             -3.270185       0.57883314     3771.7925      3.6395741      31.084371      36.372854      44.072018      0.8476       
        29   0.003629068    256.78151      3.8270845      1.421476      -8.641865      -7.2203891      3.9721379      0             -3.2482511      0.5788334      3778.7946      3.6392108      31.334555      36.69028       44.442513      0.8476       
        30   0.003744598    255.31396      3.805212       1.420639      -8.6422802     -7.2216412      3.9952628      0             -3.2263784      0.57883365     3785.6138      3.6388499      31.583446      37.006092      44.810441      0.8476       
        31   0.003859855    253.85079      3.7834049      1.4198029     -8.6427307     -7.2229278      4.0183568      0             -3.204571       0.57883391     3792.25        3.6384913      31.831033      37.320274      45.175783      0.8476       
        32   0.003991954    252.39227      3.7616671      1.4189677     -8.6432166     -7.2242489      4.041416       0             -3.1828329      0.57883416     3798.7032      3.6381351      32.077303      37.632811      45.538522      0.8476       
        33   0.004114741    250.93868      3.7400027      1.4181335     -8.6437379     -7.2256045      4.0644361      0             -3.1611683      0.57883442     3804.9732      3.6377813      32.322245      37.943687      45.898642      0.8476       
        34   0.004234196    249.4903       3.7184159      1.4173001     -8.6442946     -7.2269945      4.0874132      0             -3.1395812      0.57883467     3811.0602      3.6374299      32.565845      38.252887      46.256124      0.8476       
        35   0.004349485    248.04738      3.6969107      1.4164677     -8.6448866     -7.2284189      4.1103431      0             -3.1180757      0.57883492     3816.9639      3.6370809      32.808093      38.560396      46.610952      0.8476       
        36   0.004473343    246.61021      3.675491       1.4156363     -8.6455139     -7.2298777      4.1332218      0             -3.0966559      0.57883517     3822.6845      3.6367344      33.048976      38.866199      46.96311       0.8476       
        37   0.004594586    245.17906      3.654161       1.4148057     -8.6461766     -7.2313709      4.1560453      0             -3.0753256      0.57883542     3828.2219      3.6363903      33.288483      39.17028       47.31258       0.8476       
        38   0.004710196    243.75419      3.6329247      1.4139762     -8.6468747     -7.2328984      4.1788094      0             -3.054089       0.57883567     3833.576       3.6360486      33.5266        39.472625      47.659346      0.8476       
        39   0.004853794    242.33587      3.6117859      1.4131477     -8.647608      -7.2344603      4.2015103      0             -3.03295        0.57883592     3838.747       3.6357095      33.763318      39.773219      48.003392      0.8476       
        40   0.004983184    240.92436      3.5907488      1.4123201     -8.6483766     -7.2360565      4.2241438      0             -3.0119126      0.57883617     3843.7348      3.6353728      33.998623      40.072046      48.344702      0.8476       
        41   0.005102745    239.51994      3.5698172      1.4114936     -8.6491805     -7.2376869      4.2467061      0             -2.9909808      0.57883642     3848.5394      3.6350387      34.232505      40.369092      48.683259      0.8476       
        42   0.19223783     238.12287      3.5489952      1.4106681     -8.6500196     -7.2393516      4.269193       0             -2.9701585      0.57883666     3853.1609      3.6347071      34.464951      40.664343      49.019047      0.8476       
        43   0.19242425     236.73341      3.5282866      1.4098436     -8.650894      -7.2410504      4.2916008      0             -2.9494497      0.5788369      3857.5992      3.634378       34.695951      40.957783      49.352052      0.8476       
        44   0.19258645     235.35182      3.5076953      1.4090201     -8.6518036     -7.2427835      4.3139253      0             -2.9288582      0.57883715     3861.8544      3.6340515      34.925492      41.249399      49.682256      0.8476       
        45   0.19274107     233.97836      3.4872252      1.4081977     -8.6527484     -7.2445507      4.3361628      0             -2.9083878      0.57883739     3865.9267      3.6337276      35.153564      41.539175      50.009645      0.8476       
        46   0.19291596     232.6133       3.4668802      1.4073764     -8.6537284     -7.246352       4.3583093      0             -2.8880426      0.57883763     3869.8159      3.6334062      35.380155      41.827097      50.334204      0.8476       
        47   0.19307654     231.25688      3.4466642      1.4065562     -8.6547435     -7.2481873      4.380361       0             -2.8678263      0.57883787     3873.5223      3.6330875      35.605253      42.113152      50.655916      0.8476       
        48   0.19322849     229.90937      3.4265808      1.405737      -8.6557937     -7.2500567      4.402314       0             -2.8477427      0.5788381      3877.0458      3.6327714      35.828848      42.397325      50.974767      0.8476       
        49   0.19337802     228.57102      3.406634       1.4049189     -8.656879      -7.2519601      4.4241644      0             -2.8277957      0.57883834     3880.3865      3.6324579      36.050929      42.679601      51.290743      0.8476       
        50   0.1935356      227.24209      3.3868275      1.404102      -8.6579994     -7.2538974      4.4459085      0             -2.807989       0.57883857     3883.5445      3.632147       36.271483      42.959968      51.603828      0.8476       
        51   0.19368897     225.92282      3.3671651      1.4032862     -8.6591548     -7.2558687      4.4675424      0             -2.7883263      0.57883881     3886.52        3.6318388      36.490502      43.23841       51.914007      0.8476       
        52   0.19383779     224.61347      3.3476504      1.4024715     -8.6603453     -7.2578738      4.4890624      0             -2.7688113      0.57883904     3889.3129      3.6315333      36.707972      43.514914      52.221267      0.8476       
        53   0.19399766     223.31427      3.3282871      1.401658      -8.6615706     -7.2599127      4.5104648      0             -2.7494479      0.57883927     3891.9235      3.6312305      36.923885      43.789467      52.525593      0.8476       
        54   0.19415667     222.02549      3.309079       1.4008456     -8.662831      -7.2619854      4.5317458      0             -2.7302395      0.57883949     3894.3517      3.6309304      37.138228      44.062054      52.82697       0.8476       
        55   0.19432188     220.74735      3.2900297      1.4000344     -8.6641262     -7.2640918      4.5529018      0             -2.7111899      0.57883972     3896.5979      3.630633       37.350991      44.332663      53.125386      0.8476       
        56   0.19447252     219.48012      3.2711427      1.3992243     -8.6654562     -7.2662319      4.5739291      0             -2.6923027      0.57883994     3898.6619      3.6303383      37.562164      44.601279      53.420825      0.8476       
        57   0.19463269     218.22401      3.2524217      1.3984155     -8.6668211     -7.2684056      4.5948241      0             -2.6735815      0.57884016     3900.5441      3.6300464      37.771736      44.86789       53.713275      0.8476       
        58   0.19478673     216.97928      3.2338701      1.3976079     -8.6682208     -7.2706129      4.6155831      0             -2.6550298      0.57884038     3902.2445      3.6297573      37.979696      45.132481      54.002721      0.8476       
        59   0.1949461      215.74616      3.2154917      1.3968015     -8.6696551     -7.2728537      4.6362026      0             -2.6366511      0.5788406      3903.7633      3.6294709      38.186035      45.395041      54.28915       0.8476       
        60   0.19509692     214.52489      3.1972897      1.3959963     -8.6711242     -7.275128       4.6566791      0             -2.6184489      0.57884082     3905.1006      3.6291873      38.39074       45.655555      54.57255       0.8476       
        61   0.19525659     213.31569      3.1792677      1.3951923     -8.6726279     -7.2774356      4.677009       0             -2.6004267      0.57884103     3906.2565      3.6289064      38.593804      45.914011      54.852907      0.8476       
        62   0.19540998     212.11879      3.1614291      1.3943896     -8.6741663     -7.2797767      4.6971888      0             -2.5825879      0.57884124     3907.2314      3.6286284      38.795214      46.170396      55.130208      0.8476       
        63   0.19555954     210.93443      3.1437773      1.3935881     -8.6757391     -7.282151       4.7172151      0             -2.5649359      0.57884145     3908.0252      3.6283533      38.994962      46.424696      55.40444       0.8476       
        64   0.1957151      209.76283      3.1263157      1.3927879     -8.6773465     -7.2845586      4.7370845      0             -2.547474       0.57884166     3908.6383      3.6280809      39.193037      46.676901      55.675591      0.8476       
        65   0.19586701     208.60421      3.1090476      1.391989      -8.6789883     -7.2869993      4.7567936      0             -2.5302057      0.57884187     3909.0707      3.6278114      39.389428      46.926995      55.943648      0.8476       
        66   0.19602634     207.45879      3.0919762      1.3911914     -8.6806645     -7.2894732      4.776339       0             -2.5131341      0.57884207     3909.3227      3.6275448      39.584127      47.174968      56.2086        0.8476       
        67   0.19617645     206.32679      3.0751048      1.390395      -8.6823751     -7.2919801      4.7957175      0             -2.4962626      0.57884227     3909.3945      3.627281       39.777123      47.420807      56.470433      0.8476       
        68   0.19633222     205.20843      3.0584367      1.3896        -8.6841199     -7.2945199      4.8149257      0             -2.4795943      0.57884247     3909.2863      3.6270201      39.968407      47.6645        56.729136      0.8476       
        69   0.19648436     204.10392      3.0419751      1.3888063     -8.685899      -7.2970927      4.8339603      0             -2.4631324      0.57884266     3908.9982      3.6267621      40.157969      47.906033      56.984698      0.8476       
        70   0.19663319     203.01347      3.025723       1.3880139     -8.6877123     -7.2996983      4.8528182      0             -2.4468801      0.57884286     3908.5305      3.626507       40.345799      48.145396      57.237106      0.8476       
        71   0.19679706     201.93729      3.0096835      1.3872229     -8.6895596     -7.3023367      4.8714963      0             -2.4308405      0.57884305     3907.8835      3.6262548      40.531888      48.382576      57.486349      0.8476       
        72   0.19696144     200.87559      2.9938598      1.3864332     -8.691441      -7.3050078      4.8899913      0             -2.4150166      0.57884324     3907.0573      3.6260056      40.716226      48.617561      57.732415      0.8476       
        73   0.19711542     199.82856      2.9782549      1.3856449     -8.6933564     -7.3077116      4.9083001      0             -2.3994115      0.57884342     3906.0521      3.6257593      40.898804      48.850339      57.975295      0.8476       
        74   0.19726504     198.79641      2.9628717      1.3848579     -8.6953058     -7.3104478      4.9264197      0             -2.3840281      0.57884361     3904.8683      3.625516       41.079613      49.080899      58.214976      0.8476       
        75   0.19742043     197.77934      2.9477132      1.3840723     -8.6972889     -7.3132166      4.9443472      0             -2.3688694      0.57884379     3903.506       3.6252756      41.258644      49.309229      58.451447      0.8476       
        76   0.197572       196.77754      2.9327823      1.3832881     -8.6993059     -7.3160178      4.9620794      0             -2.3539384      0.57884397     3901.9655      3.6250382      41.435887      49.535318      58.684699      0.8476       
        77   0.19772209     195.7912       2.9180819      1.3825054     -8.7013566     -7.3188512      4.9796135      0             -2.3392378      0.57884414     3900.2471      3.6248037      41.611334      49.759154      58.914721      0.8476       
        78   0.19787076     194.82052      2.9036148      1.381724      -8.703441      -7.321717       4.9969465      0             -2.3247705      0.57884432     3898.351       3.6245723      41.784975      49.980726      59.141501      0.8476       
        79   0.19803429     193.86567      2.8893837      1.380944      -8.7055589     -7.3246149      5.0140756      0             -2.3105392      0.57884449     3896.2775      3.6243439      41.956802      50.200022      59.365031      0.8476       
        80   0.19818517     192.92685      2.8753915      1.3801655     -8.7077103     -7.3275448      5.030998       0             -2.2965468      0.57884466     3894.0269      3.6241185      42.126806      50.417032      59.5853        0.8476       
        81   0.19833418     192.00423      2.8616407      1.3793884     -8.7098952     -7.3305068      5.0477109      0             -2.2827959      0.57884482     3891.5994      3.6238961      42.294977      50.631745      59.802299      0.8476       
        82   0.19848388     191.09799      2.848134       1.3786127     -8.7121134     -7.3335007      5.0642116      0             -2.2692891      0.57884498     3888.9953      3.6236768      42.461309      50.844149      60.016017      0.8476       
        83   0.19863939     190.2083       2.8348741      1.3778385     -8.7143649     -7.3365264      5.0804974      0             -2.256029       0.57884514     3886.215       3.6234605      42.625791      51.054235      60.226445      0.8476       
        84   0.19879092     189.33535      2.8218635      1.3770658     -8.7166496     -7.3395838      5.0965656      0             -2.2430182      0.5788453      3883.2586      3.6232472      42.788416      51.26199       60.433574      0.8476       
        85   0.19894772     188.47928      2.8091047      1.3762945     -8.7189674     -7.3426729      5.1124136      0             -2.2302592      0.57884545     3880.1266      3.6230371      42.949175      51.467406      60.637395      0.8476       
        86   0.19910401     187.64028      2.7966001      1.3755248     -8.7213183     -7.3457935      5.1280389      0             -2.2177545      0.5788456      3876.8191      3.62283        43.108061      51.670471      60.837898      0.8476       
        87   0.19926905     186.8185       2.7843523      1.3747565     -8.7237021     -7.3489456      5.143439       0             -2.2055065      0.57884575     3873.3366      3.6226259      43.265064      51.871175      61.035075      0.8476       
        88   0.19942062     186.0141       2.7723634      1.3739897     -8.7261187     -7.352129       5.1586115      0             -2.1935175      0.5788459      3869.6793      3.622425       43.420176      52.069508      61.228918      0.8476       
        89   0.19957013     185.22723      2.760636       1.3732245     -8.7285682     -7.3553437      5.1735538      0             -2.1817899      0.57884604     3865.8475      3.6222272      43.57339       52.26546       61.419418      0.8476       
        90   0.40468834     184.45806      2.7491721      1.3724607     -8.7310503     -7.3585896      5.1882636      0             -2.170326       0.57884618     3861.8417      3.6220325      43.724698      52.45902       61.606565      0.8476       
        91   0.40486698     183.70672      2.7379742      1.3716985     -8.733565      -7.3618665      5.2027387      0             -2.1591279      0.57884631     3857.662       3.6218409      43.874092      52.650179      61.790354      0.8476       
        92   0.40504799     182.97337      2.7270442      1.3709378     -8.7361123     -7.3651744      5.2169766      0             -2.1481978      0.57884644     3853.3089      3.6216525      44.021564      52.838928      61.970774      0.8476       
        93   0.40521073     182.25814      2.7163845      1.3701787     -8.7386919     -7.3685132      5.2309753      0             -2.1375379      0.57884657     3848.7827      3.6214672      44.167107      53.025256      62.14782       0.8476       
        94   0.40536528     181.56118      2.7059969      1.3694211     -8.7413039     -7.3718828      5.2447325      0             -2.1271502      0.5788467      3844.0836      3.621285       44.310712      53.209153      62.321482      0.8476       
        95   0.40551699     180.88262      2.6958836      1.3686651     -8.7439481     -7.375283       5.2582462      0             -2.1170368      0.57884682     3839.2122      3.621106       44.452372      53.390612      62.491754      0.8476       
        96   0.40568549     180.22259      2.6860466      1.3679107     -8.7466244     -7.3787137      5.2715141      0             -2.1071996      0.57884694     3834.1687      3.6209301      44.592081      53.569621      62.658628      0.8476       
        97   0.40584176     179.58123      2.6764876      1.3671578     -8.7493328     -7.3821749      5.2845344      0             -2.0976406      0.57884706     3828.9535      3.6207574      44.72983       53.746173      62.822097      0.8476       
        98   0.40600443     178.95865      2.6672087      1.3664066     -8.752073      -7.3856665      5.2973049      0             -2.0883616      0.57884717     3823.5669      3.6205879      44.865613      53.920257      62.982155      0.8476       
        99   0.40615639     178.35498      2.6582117      1.3656569     -8.7548451     -7.3891882      5.3098239      0             -2.0793644      0.57884728     3818.0094      3.6204216      44.999422      54.091865      63.138794      0.8476       
       100   0.40631187     177.77035      2.6494982      1.3649088     -8.7576489     -7.3927401      5.3220893      0             -2.0706508      0.57884739     3812.2812      3.6202585      45.13125       54.260988      63.292008      0.8476       
       101   0.40646735     177.20485      2.64107        1.3641624     -8.7604844     -7.396322       5.3340995      0             -2.0622225      0.57884749     3806.3829      3.6200986      45.261091      54.427618      63.44179       0.8476       
       102   0.40662013     176.65861      2.6329288      1.3634175     -8.7633513     -7.3999338      5.3458526      0             -2.0540812      0.57884759     3800.3146      3.6199418      45.388937      54.591745      63.588135      0.8476       
       103   0.40677001     176.13173      2.6250761      1.3626743     -8.7662496     -7.4035753      5.3573468      0             -2.0462285      0.57884769     3794.077       3.6197883      45.514782      54.753362      63.731036      0.8476       
       104   0.40695348     175.62431      2.6175136      1.3619328     -8.7691792     -7.4072465      5.3685806      0             -2.0386658      0.57884778     3787.6702      3.6196381      45.638619      54.91246       63.870488      0.8476       
       105   0.40710738     175.13647      2.6102427      1.3611929     -8.77214       -7.4109472      5.3795523      0             -2.0313948      0.57884787     3781.0948      3.619491       45.760441      55.06903       64.006484      0.8476       
       106   0.40725682     174.66828      2.6032648      1.3604546     -8.7751319     -7.4146773      5.3902604      0             -2.0244169      0.57884796     3774.3511      3.6193472      45.880242      55.223064      64.139019      0.8476       
       107   0.40740433     174.21985      2.5965814      1.359718      -8.7781547     -7.4184367      5.4007033      0             -2.0177334      0.57884804     3767.4396      3.6192066      45.998016      55.374555      64.268088      0.8476       
       108   0.40755785     173.79127      2.5901938      1.3589831     -8.7812083     -7.4222252      5.4108795      0             -2.0113457      0.57884812     3760.3605      3.6190693      46.113756      55.523495      64.393686      0.8476       
       109   0.40770742     173.38261      2.5841032      1.3582498     -8.7842926     -7.4260428      5.4207878      0             -2.005255       0.57884819     3753.1145      3.6189352      46.227457      55.669875      64.515807      0.8476       
       110   0.40785495     172.99397      2.5783109      1.3575182     -8.7874075     -7.4298893      5.4304267      0             -1.9994626      0.57884827     3745.7018      3.6188044      46.339111      55.813688      64.634447      0.8476       
       111   0.40801662     172.62542      2.572818       1.3567884     -8.7905529     -7.4337646      5.4397949      0             -1.9939697      0.57884834     3738.1229      3.6186769      46.448713      55.954927      64.749602      0.8476       
       112   0.40816631     172.27704      2.5676257      1.3560602     -8.7937286     -7.4376685      5.4488912      0             -1.9887773      0.5788484      3730.3782      3.6185526      46.556257      56.093584      64.861266      0.8476       
       113   0.40831411     171.94889      2.5627349      1.3553337     -8.7969346     -7.4416009      5.4577144      0             -1.9838865      0.57884846     3722.4681      3.6184316      46.661737      56.229652      64.969435      0.8476       
       114   0.40846095     171.64105      2.5581468      1.3546089     -8.8001706     -7.4455617      5.4662634      0             -1.9792983      0.57884852     3714.3932      3.6183139      46.765148      56.363123      65.074105      0.8476       
       115   0.4086132      171.35357      2.5538622      1.3538859     -8.8034366     -7.4495507      5.4745372      0             -1.9750136      0.57884858     3706.1537      3.6181994      46.866483      56.493991      65.175273      0.8476       
       116   0.40876213     171.08651      2.549882       1.3531646     -8.8067325     -7.4535679      5.4825346      0             -1.9710333      0.57884863     3697.7502      3.6180883      46.965738      56.622248      65.272935      0.8476       
       117   0.40891613     170.83994      2.546207       1.352445      -8.810058      -7.457613       5.4902547      0             -1.9673583      0.57884867     3689.1832      3.6179805      47.062907      56.747889      65.367086      0.8476       
       118   0.40906535     170.61389      2.542838       1.3517272     -8.8134131     -7.461686       5.4976967      0             -1.9639893      0.57884872     3680.4529      3.6178759      47.157984      56.870905      65.457724      0.8476       
       119   0.40921851     170.40843      2.5397758      1.3510111     -8.8167977     -7.4657866      5.5048596      0             -1.960927       0.57884876     3671.56        3.6177747      47.250964      56.991291      65.544846      0.8476       
       120   0.40937913     170.22359      2.5370209      1.3502967     -8.8202115     -7.4699148      5.5117427      0             -1.9581721      0.5788488      3662.5048      3.6176768      47.341842      57.109041      65.628448      0.8476       
       121   0.40952733     170.05941      2.534574       1.3495842     -8.8236546     -7.4740704      5.5183452      0             -1.9557252      0.57884883     3653.2879      3.6175822      47.430614      57.224147      65.708527      0.8476       
       122   0.40967911     169.91593      2.5324356      1.3488733     -8.8271266     -7.4782533      5.5246665      0             -1.9535868      0.57884886     3643.9097      3.6174909      47.517273      57.336604      65.785081      0.8476       
       123   0.40982693     169.79319      2.5306062      1.3481643     -8.8306275     -7.4824632      5.5307059      0             -1.9517573      0.57884888     3634.3706      3.6174029      47.601815      57.446405      65.858107      0.8476       
       124   0.40998137     169.6912       2.5290862      1.3474571     -8.8341572     -7.4867001      5.5364629      0             -1.9502373      0.57884891     3624.6711      3.6173183      47.684236      57.553545      65.927603      0.8476       
       125   0.41012904     169.61         2.5278759      1.3467516     -8.8377154     -7.4909638      5.5419369      0             -1.949027       0.57884892     3614.8117      3.617237       47.764531      57.658018      65.993567      0.8476       
       126   0.41028104     169.5496       2.5269757      1.3460479     -8.8413021     -7.4952542      5.5471275      0             -1.9481268      0.57884894     3604.793       3.617159       47.842695      57.759817      66.055996      0.8476       
       127   0.4104294      169.51002      2.5263858      1.3453461     -8.8449172     -7.4995711      5.5520342      0             -1.9475369      0.57884895     3594.6153      3.6170844      47.918724      57.858939      66.11489       0.8476       
       128   0.41057614     169.49127      2.5261064      1.344646      -8.8485603     -7.5039143      5.5566569      0             -1.9472575      0.57884896     3584.2791      3.6170131      47.992613      57.955377      66.170246      0.8476       
       129   0.41073153     169.49337      2.5261377      1.3439477     -8.8522315     -7.5082838      5.5609951      0             -1.9472887      0.57884896     3573.785       3.6169452      48.064358      58.049125      66.222062      0.8476       
       130   0.4108804      169.51631      2.5264796      1.3432513     -8.8559305     -7.5126792      5.5650486      0             -1.9476306      0.57884896     3563.1335      3.6168806      48.133954      58.140179      66.270338      0.8476       
       131   0.41103639     169.5601       2.5271322      1.3425567     -8.8596572     -7.5171005      5.5688173      0             -1.9482833      0.57884896     3552.3249      3.6168193      48.201399      58.228534      66.315073      0.8476       
       132   0.41118312     169.62473      2.5280955      1.3418639     -8.8634115     -7.5215476      5.572301       0             -1.9492466      0.57884895     3541.36        3.6167614      48.266688      58.314184      66.356266      0.8476       
       133   0.41133406     169.7102       2.5293694      1.341173      -8.8671931     -7.5260201      5.5754997      0             -1.9505204      0.57884894     3530.239       3.6167069      48.329817      58.397126      66.393915      0.8476       
       134   0.41148215     169.8165       2.5309536      1.3404839     -8.871002      -7.5305181      5.5784134      0             -1.9521047      0.57884893     3518.9626      3.6166557      48.390781      58.477353      66.42802       0.8476       
       135   0.41162825     169.94361      2.532848       1.3397966     -8.8748379     -7.5350413      5.5810422      0             -1.9539991      0.57884891     3507.5313      3.6166079      48.449579      58.554862      66.458582      0.8476       
       136   0.41178815     170.0915       2.5350523      1.3391112     -8.8787007     -7.5395895      5.5833861      0             -1.9562034      0.57884889     3495.9456      3.6165634      48.506205      58.629649      66.485599      0.8476       
       137   0.41194866     170.26017      2.5375662      1.3384277     -8.8825903     -7.5441626      5.5854453      0             -1.9587173      0.57884886     3484.2059      3.6165224      48.560657      58.701708      66.509072      0.8476       
       138   0.75048693     170.44958      2.5403891      1.337746      -8.8865064     -7.5487605      5.5872201      0             -1.9615403      0.57884883     3472.3129      3.6164846      48.612931      58.771037      66.529001      0.8476       
       139   0.75066358     170.6597       2.5435208      1.3370662     -8.890449      -7.5533828      5.5887108      0             -1.964672       0.5788488      3460.2671      3.6164503      48.663024      58.83763       66.545386      0.8476       
       140   0.75082955     170.8905       2.5469607      1.3363882     -8.8944178     -7.5580295      5.5899176      0             -1.9681119      0.57884876     3448.0689      3.6164193      48.710933      58.901484      66.558228      0.8476       
       141   0.75100681     171.14194      2.5507081      1.3357122     -8.8984126     -7.5627004      5.5908411      0             -1.9718594      0.57884872     3435.7189      3.6163917      48.756655      58.962595      66.567527      0.8476       
       142   0.75116155     171.41397      2.5547625      1.335038      -8.9024334     -7.5673954      5.5914815      0             -1.9759138      0.57884868     3423.2176      3.6163674      48.800186      59.02096       66.573285      0.8476       
       143   0.75130951     171.70656      2.5591232      1.3343657     -8.9064798     -7.5721141      5.5918396      0             -1.9802745      0.57884863     3410.5656      3.6163465      48.841524      59.076575      66.575501      0.8476       
       144   0.75146803     172.01964      2.5637894      1.3336953     -8.9105518     -7.5768565      5.5919157      0             -1.9849408      0.57884858     3397.7635      3.616329       48.880666      59.129436      66.574179      0.8476       
       145   0.75161605     172.35317      2.5687603      1.3330268     -8.9146492     -7.5816224      5.5917106      0             -1.9899118      0.57884853     3384.8117      3.6163149      48.91761       59.179541      66.569318      0.8476       
       146   0.75176126     172.70709      2.5740351      1.3323602     -8.9187718     -7.5864116      5.5912249      0             -1.9951866      0.57884847     3371.7108      3.6163041      48.952352      59.226886      66.560921      0.8476       
       147   0.751922       173.08133      2.5796128      1.3316956     -8.9229194     -7.5912238      5.5904594      0             -2.0007644      0.57884841     3358.4614      3.6162967      48.984891      59.271469      66.548989      0.8476       
       148   0.75207261     173.47583      2.5854925      1.3310328     -8.9270918     -7.596059       5.5894149      0             -2.0066441      0.57884834     3345.0641      3.6162927      49.015225      59.313286      66.533524      0.8476       
       149   0.75221891     173.89052      2.5916731      1.3303719     -8.9312888     -7.6009169      5.5880921      0             -2.0128248      0.57884827     3331.5193      3.6162921      49.04335       59.352335      66.514529      0.8476       
       150   0.75236335     174.32533      2.5981535      1.329713      -8.9355104     -7.6057974      5.5864921      0             -2.0193053      0.5788482      3317.8276      3.6162948      49.069265      59.388613      66.492006      0.8476       
       151   0.75251439     174.78018      2.6049326      1.329056      -8.9397562     -7.6107002      5.5846157      0             -2.0260845      0.57884812     3303.9897      3.6163009      49.092967      59.422118      66.465956      0.8476       
       152   0.75268328     175.25499      2.6120091      1.3284009     -8.944026      -7.6156251      5.582464       0             -2.0331611      0.57884804     3290.006       3.6163104      49.114456      59.452847      66.436383      0.8476       
       153   0.75282986     175.74967      2.6193819      1.3277478     -8.9483198     -7.620572       5.5800381      0             -2.0405339      0.57884796     3275.8772      3.6163233      49.133728      59.480799      66.40329       0.8476       
       154   0.75298309     176.26414      2.6270496      1.3270966     -8.9526373     -7.6255407      5.577339       0             -2.0482017      0.57884787     3261.6038      3.6163395      49.150783      59.505971      66.366679      0.8476       
       155   0.7531353      176.7983       2.6350107      1.3264473     -8.9569783     -7.630531       5.574368       0             -2.0561629      0.57884778     3247.1863      3.6163591      49.165618      59.528361      66.326554      0.8476       
       156   0.75328388     177.35206      2.643264       1.3258        -8.9613426     -7.6355426      5.5711263      0             -2.0644163      0.57884769     3232.6255      3.6163821      49.178233      59.547967      66.282918      0.8476       
       157   0.75342821     177.92531      2.6518078      1.3251547     -8.96573       -7.6405754      5.5676151      0             -2.0729602      0.57884759     3217.9218      3.6164084      49.188625      59.564789      66.235775      0.8476       
       158   0.75358213     178.51796      2.6606407      1.3245113     -8.9701404     -7.6456291      5.5638359      0             -2.0817932      0.57884749     3203.0759      3.6164381      49.196794      59.578824      66.185128      0.8476       
       159   0.75373055     179.1299       2.669761       1.3238698     -8.9745735     -7.6507036      5.55979        0             -2.0909137      0.57884739     3188.0883      3.6164712      49.202738      59.59007       66.130981      0.8476       
       160   0.75387547     179.76101      2.6791672      1.3232303     -8.9790291     -7.6557987      5.5554788      0             -2.1003199      0.57884728     3172.9596      3.6165076      49.206456      59.598528      66.073338      0.8476       
       161   0.75403018     180.41119      2.6888574      1.3225928     -8.983507      -7.6609142      5.5509039      0             -2.1100103      0.57884717     3157.6904      3.6165474      49.207948      59.604195      66.012204      0.8476       
       162   0.75418265     181.08031      2.69883        1.3219573     -8.988007      -7.6660498      5.5460668      0             -2.119983       0.57884706     3142.2814      3.6165906      49.207211      59.607071      65.947582      0.8476       
       163   0.75433098     181.76825      2.7090831      1.3213237     -8.992529      -7.6712053      5.5409691      0             -2.1302362      0.57884694     3126.7331      3.6166371      49.204246      59.607154      65.879478      0.8476       
       164   0.75447656     182.47489      2.7196149      1.3206921     -8.9970726     -7.6763805      5.5356125      0             -2.140768       0.57884682     3111.0461      3.616687       49.199052      59.604444      65.807896      0.8476       
       165   0.75462727     183.20009      2.7304234      1.3200625     -9.0016377     -7.6815753      5.5299986      0             -2.1515767      0.5788467      3095.221       3.6167402      49.191629      59.598941      65.732841      0.8476       
       166   0.75477646     183.94373      2.7415066      1.3194348     -9.0062242     -7.6867893      5.5241293      0             -2.1626601      0.57884657     3079.2585      3.6167968      49.181975      59.590644      65.654318      0.8476       
       167   0.75493118     184.70567      2.7528626      1.3188092     -9.0108317     -7.6920225      5.5180063      0             -2.1740162      0.57884644     3063.1592      3.6168567      49.17009       59.579552      65.572332      0.8476       
       168   0.75507941     185.48577      2.7644893      1.3181855     -9.01546       -7.6972745      5.5116315      0             -2.185643       0.57884631     3046.9236      3.61692        49.155975      59.565666      65.486889      0.8476       
       169   0.75524779     186.28389      2.7763845      1.3175638     -9.020109      -7.7025452      5.5050069      0             -2.1975383      0.57884617     3030.5524      3.6169866      49.139629      59.548985      65.397995      0.8476       
       170   0.75539434     187.09988      2.788546       1.3169442     -9.0247784     -7.7078343      5.4981343      0             -2.2097         0.57884603     3014.0462      3.6170566      49.121052      59.52951       65.305654      0.8476       
       171   0.75554097     187.93359      2.8009717      1.3163265     -9.029468      -7.7131416      5.4910158      0             -2.2221258      0.57884588     2997.4057      3.6171299      49.100244      59.507241      65.209874      0.8476       
       172   0.75568785     188.78487      2.8136592      1.3157108     -9.0341776     -7.7184669      5.4836534      0             -2.2348135      0.57884574     2980.6315      3.6172065      49.077205      59.482177      65.11066       0.8476       
       173   0.7558439      189.65356      2.8266062      1.3150971     -9.038907      -7.7238099      5.4760493      0             -2.2477606      0.57884559     2963.7241      3.6172865      49.051936      59.45432       65.008019      0.8476       
       174   0.75600732     190.53951      2.8398104      1.3144854     -9.0436559     -7.7291705      5.4682055      0             -2.2609649      0.57884544     2946.6843      3.6173697      49.024437      59.423671      64.901956      0.8476       
       175   0.75615403     191.44254      2.8532692      1.3138758     -9.0484241     -7.7345484      5.4601244      0             -2.274424       0.57884528     2929.5127      3.6174563      48.994708      59.390229      64.792479      0.8476       
       176   0.75630839     192.3625       2.8669803      1.3132681     -9.0532114     -7.7399433      5.4518081      0             -2.2881352      0.57884512     2912.2099      3.6175463      48.96275       59.353996      64.679595      0.8476       
       177   0.75645841     193.29921      2.8809411      1.3126625     -9.0580176     -7.7453552      5.443259       0             -2.3020961      0.57884496     2894.7765      3.6176395      48.928564      59.314973      64.563309      0.8476       
       178   0.75660651     194.2525       2.895149       1.3120588     -9.0628424     -7.7507836      5.4344794      0             -2.3163042      0.5788448      2877.2133      3.617736       48.89215       59.273161      64.443631      0.8476       
       179   0.75675236     195.2222       2.9096014      1.3114572     -9.0676856     -7.7562284      5.4254716      0             -2.3307568      0.57884463     2859.5208      3.6178359      48.85351       59.228561      64.320566      0.8476       
       180   0.75691321     196.20812      2.9242957      1.3108576     -9.072547      -7.7616894      5.4162382      0             -2.3454512      0.57884446     2841.6997      3.617939       48.812644      59.181175      64.194122      0.8476       
       181   0.7570641      197.21009      2.939229       1.31026       -9.0774263     -7.7671663      5.4067815      0             -2.3603847      0.57884429     2823.7507      3.6180455      48.769554      59.131005      64.064307      0.8476       
       182   0.75721369     198.22791      2.9543988      1.3096645     -9.0823233     -7.7726588      5.3971042      0             -2.3755547      0.57884411     2805.6745      3.6181552      48.72424       59.078051      63.931129      0.8476       
       183   0.7573665      199.26141      2.9698021      1.3090709     -9.0872378     -7.7781668      5.3872087      0             -2.3909581      0.57884393     2787.4716      3.6182682      48.676705      59.022316      63.794596      0.8476       
       184   0.75751653     200.31039      2.9854361      1.3084794     -9.0921695     -7.78369        5.3770977      0             -2.4065923      0.57884375     2769.1427      3.6183845      48.626949      58.963802      63.654716      0.8476       
       185   0.75767883     201.37465      3.0012979      1.30789       -9.0971181     -7.7892282      5.3667738      0             -2.4224543      0.57884357     2750.6886      3.618504       48.574974      58.90251       63.511496      0.8476       
       186   0.97120496     202.454        3.0173846      1.3073025     -9.1020835     -7.794781       5.3562398      0             -2.4385412      0.57884338     2732.1099      3.6186269      48.520782      58.838444      63.364946      0.8476       
       187   0.97138418     203.54824      3.0336932      1.3067171     -9.1070654     -7.8003483      5.3454984      0             -2.45485        0.57884319     2713.4073      3.618753       48.464375      58.771605      63.215075      0.8476       
       188   0.97154011     204.65716      3.0502207      1.3061337     -9.1120636     -7.8059299      5.3345522      0             -2.4713777      0.578843       2694.5814      3.6188823      48.405753      58.701996      63.06189       0.8476       
       189   0.97168928     205.78057      3.0669639      1.3055524     -9.1170778     -7.8115254      5.3234043      0             -2.4881211      0.5788428      2675.6329      3.6190149      48.344921      58.62962       62.905401      0.8476       
       190   0.97183514     206.91825      3.0839199      1.304973      -9.1221077     -7.8171347      5.3120573      0             -2.5050773      0.57884261     2656.5625      3.6191508      48.281878      58.554479      62.745618      0.8476       
       191   0.9720071      208.06998      3.1010855      1.3043958     -9.1271532     -7.8227574      5.3005143      0             -2.5222431      0.57884241     2637.3709      3.6192899      48.216628      58.476576      62.582549      0.8476       
       192   0.97215566     209.23557      3.1184574      1.3038205     -9.1322139     -7.8283933      5.2887781      0             -2.5396152      0.5788422      2618.0588      3.6194322      48.149173      58.395914      62.416203      0.8476       
       193   0.97229821     210.41479      3.1360325      1.3032473     -9.1372896     -7.8340422      5.2768517      0             -2.5571905      0.578842       2598.6269      3.6195777      48.079515      58.312497      62.246592      0.8476       
       194   0.97244607     211.60741      3.1538075      1.3026762     -9.14238       -7.8397039      5.2647382      0             -2.5749657      0.57884179     2579.0759      3.6197265      48.007657      58.226328      62.073723      0.8476       
       195   0.97259021     212.81323      3.1717791      1.302107      -9.147485      -7.845378       5.2524405      0             -2.5929375      0.57884158     2559.4064      3.6198785      47.933601      58.137409      61.897607      0.8476       
       196   0.97273129     214.03201      3.1899439      1.30154       -9.1526042     -7.8510643      5.2399618      0             -2.6111025      0.57884137     2539.6192      3.6200336      47.85735       58.045746      61.718255      0.8476       
       197   0.97287263     215.26353      3.2082985      1.3009749     -9.1577374     -7.8567625      5.2273052      0             -2.6294574      0.57884116     2519.715       3.620192       47.778908      57.951341      61.535676      0.8476       
       198   0.9730333      216.50756      3.2268396      1.3004119     -9.1628844     -7.8624725      5.2144738      0             -2.6479987      0.57884094     2499.6945      3.6203536      47.698275      57.854198      61.349881      0.8476       
       199   0.97317644     217.76388      3.2455637      1.299851      -9.1680448     -7.8681938      5.2014708      0             -2.666723       0.57884072     2479.5584      3.6205183      47.615457      57.754321      61.160881      0.8476       
       200   0.97331815     219.03223      3.2644674      1.299292      -9.1732184     -7.8739263      5.1882995      0             -2.6856269      0.5788405      2459.3074      3.6206863      47.530455      57.651715      60.968686      0.8476       
       201   0.97347674     220.31239      3.283547       1.2987352     -9.1784049     -7.8796697      5.174963       0             -2.7047067      0.57884028     2438.9422      3.6208574      47.443274      57.546383      60.773307      0.8476       
       202   0.97362624     221.60413      3.302799       1.2981804     -9.1836042     -7.8854238      5.1614648      0             -2.723959       0.57884005     2418.4636      3.6210316      47.353916      57.43833       60.574755      0.8476       
       203   0.97376781     222.90719      3.32222        1.2976276     -9.1888158     -7.8911882      5.1478081      0             -2.7433801      0.57883983     2397.8722      3.621209       47.262384      57.32756       60.373041      0.8476       
       204   0.97391674     224.22134      3.3418061      1.2970768     -9.1940396     -7.8969628      5.1339962      0             -2.7629665      0.5788396      2377.1689      3.6213896      47.168684      57.214078      60.168177      0.8476       
       205   0.97407822     225.54633      3.3615538      1.2965282     -9.1992753     -7.9027471      5.1200326      0             -2.7827145      0.57883937     2356.3543      3.6215732      47.072817      57.09789       59.960174      0.8476       
       206   0.97422243     226.88192      3.3814595      1.2959815     -9.2045225     -7.908541       5.1059207      0             -2.8026203      0.57883913     2335.4291      3.62176        46.974788      56.978998      59.749044      0.8476       
       207   0.97436279     228.22785      3.4015193      1.2954369     -9.2097812     -7.9143443      5.0916638      0             -2.8226804      0.5788389      2314.3942      3.62195        46.8746        56.85741       59.534798      0.8476       
       208   0.97450382     229.58387      3.4217296      1.2948944     -9.2150508     -7.9201565      5.0772656      0             -2.8428909      0.57883866     2293.2502      3.622143       46.772259      56.733129      59.31745       0.8476       
       209   0.97464939     230.94974      3.4420866      1.2943538     -9.2203313     -7.9259775      5.0627293      0             -2.8632481      0.57883842     2271.9979      3.6223391      46.667767      56.606161      59.09701       0.8476       
       210   0.97479282     232.3252       3.4625864      1.2938154     -9.2256223     -7.9318069      5.0480587      0             -2.8837482      0.57883818     2250.6381      3.6225651      46.561128      56.476511      58.87349       0.8476       
       211   0.97494333     233.70998      3.4832253      1.293279      -9.2309235     -7.9376446      5.0332572      0             -2.9043874      0.57883794     2229.1714      3.6229122      46.452348      56.344186      58.646905      0.8476       
       212   0.9751021      235.10384      3.5039994      1.2927446     -9.2362347     -7.9434901      5.0183284      0             -2.9251617      0.5788377      2207.5987      3.6232603      46.34143       56.209191      58.417265      0.8476       
       213   0.97524524     236.5065       3.5249048      1.2922122     -9.2415556     -7.9493433      5.003276       0             -2.9460674      0.57883745     2185.9207      3.6236095      46.228379      56.07153       58.184584      0.8476       
       214   0.97538576     237.91772      3.5459377      1.291682      -9.2468859     -7.9552039      4.9881035      0             -2.9671004      0.57883721     2164.1381      3.6239596      46.1132        55.931212      57.948875      0.8476       
       215   0.9755266      239.33722      3.567094       1.2911537     -9.2522253     -7.9610716      4.9728146      0             -2.988257       0.57883696     2142.2518      3.6243109      45.995896      55.78824       57.71015       0.8476       
       216   0.97567356     240.76474      3.5883698      1.2906275     -9.2575735     -7.966946       4.9574129      0             -3.0095331      0.57883671     2120.2624      3.6246631      45.876474      55.642623      57.468423      0.8476       
       217   0.97583042     242.20002      3.6097613      1.2901033     -9.2629303     -7.972827       4.9419022      0             -3.0309248      0.57883646     2098.1709      3.6250163      45.754937      55.494365      57.223707      0.8476       
       218   0.97598155     243.64278      3.6312642      1.2895812     -9.2682954     -7.9787142      4.9262861      0             -3.052428       0.57883621     2075.9778      3.6253705      45.631291      55.343474      56.976016      0.8476       
       219   0.97612378     245.09276      3.6528748      1.2890611     -9.2736684     -7.9846073      4.9105685      0             -3.0740388      0.57883596     2053.6841      3.6257257      45.505541      55.189956      56.725363      0.8476       
       220   0.97627934     246.54968      3.6745888      1.2885431     -9.2790492     -7.9905061      4.894753       0             -3.0957531      0.5788357      2031.2904      3.6260819      45.377692      55.033817      56.471761      0.8476       
       221   0.97642373     248.01327      3.6964023      1.288027      -9.2844374     -7.9964103      4.8788435      0             -3.1175668      0.57883544     2008.7976      3.626439       45.24775       54.875065      56.215226      0.8476       
       222   0.97656456     249.48326      3.7183111      1.2875131     -9.2898326     -8.0023196      4.8628437      0             -3.1394759      0.57883519     1986.2065      3.6267971      45.115719      54.713706      55.95577       0.8476       
       223   0.9767111      250.95938      3.7403112      1.2870011     -9.2952348     -8.0082336      4.8467574      0             -3.1614763      0.57883493     1963.5179      3.6271561      44.981605      54.549748      55.693408      0.8476       
       224   0.97685632     252.44134      3.7623984      1.2864912     -9.3006434     -8.0141522      4.8305884      0             -3.1835638      0.57883467     1940.7325      3.627516       44.845414      54.383198      55.428155      0.8476       
       225   0.97700841     253.92887      3.7845687      1.2859833     -9.3060583     -8.020075       4.8143407      0             -3.2057343      0.57883441     1917.8511      3.6278769      44.707152      54.214063      55.160024      0.8476       
       226   0.97715219     255.4217       3.8068178      1.2854775     -9.3114792     -8.0260017      4.798018       0             -3.2279836      0.57883415     1894.8746      3.6282386      44.566823      54.04235       54.889031      0.8476       
       227   0.97730408     256.91953      3.8291416      1.2849737     -9.3169057     -8.031932       4.7816243      0             -3.2503077      0.57883389     1871.8037      3.6286013      44.424435      53.868068      54.61519       0.8476       
       228   0.97744982     258.4221       3.851536       1.2844719     -9.3223375     -8.0378657      4.7651633      0             -3.2727023      0.57883362     1848.6393      3.6289649      44.279993      53.691224      54.338516      0.8476       
       229   0.97759393     259.92912      3.8739966      1.2839721     -9.3277745     -8.0438024      4.7486391      0             -3.2951633      0.57883336     1825.3822      3.6293293      44.133504      53.511825      54.059024      0.8476       
       230   0.97774246     261.4403       3.8965194      1.2834743     -9.3332162     -8.0497418      4.7320555      0             -3.3176863      0.5788331      1802.0332      3.6296946      43.984972      53.32988       53.776729      0.8476       
       231   0.97788664     262.95538      3.9191001      1.2829786     -9.3386623     -8.0556837      4.7154164      0             -3.3402673      0.57883283     1778.5931      3.6300608      43.834406      53.145396      53.491647      0.8476       
       232   0.97803889     264.47405      3.9417345      1.2824849     -9.3441126     -8.0616277      4.6987258      0             -3.3629019      0.57883257     1755.0627      3.6304278      43.68181       52.958383      53.203793      0.8476       
       233   0.97818015     265.99604      3.9644183      1.2819932     -9.3495668     -8.0675736      4.6819876      0             -3.385586       0.5788323      1731.4429      3.6307956      43.527192      52.768848      52.913182      0.8476       
       234   1.2075764      267.52106      3.9871474      1.2815035     -9.3550246     -8.073521       4.6652057      0             -3.4083153      0.57883203     1707.7344      3.6311643      43.370558      52.5768        52.61983       0.8476       
       235   1.2077487      269.04883      4.0099173      1.2810159     -9.3604856     -8.0794697      4.6483842      0             -3.4310855      0.57883177     1683.9382      3.6315338      43.211915      52.382247      52.323753      0.8476       
       236   1.207917       270.57906      4.0327239      1.2805302     -9.3659495     -8.0854193      4.6315269      0             -3.4538924      0.5788315      1660.0551      3.6319041      43.05127       52.185199      52.024967      0.8476       
       237   1.2080676      272.11146      4.0555629      1.2800466     -9.3714162     -8.0913696      4.6146379      0             -3.4767317      0.57883123     1636.0859      3.6322752      42.888629      51.985663      51.723488      0.8476       
       238   1.2082197      273.64575      4.07843        1.2795649     -9.3768851     -8.0973202      4.5977211      0             -3.4995991      0.57883096     1612.0314      3.6326471      42.723999      51.783649      51.419333      0.8476       
       239   1.2083658      275.18164      4.101321       1.2790853     -9.3823561     -8.1032708      4.5807805      0             -3.5224903      0.57883069     1587.8925      3.6330198      42.557388      51.579166      51.112517      0.8476       
       240   1.2085086      276.71884      4.1242315      1.2786077     -9.3878288     -8.1092212      4.5638201      0             -3.5454011      0.57883042     1563.67        3.6333932      42.388803      51.372224      50.803057      0.8476       
       241   1.2086587      278.25706      4.1471572      1.2781321     -9.393303      -8.1151709      4.5468438      0             -3.5683271      0.57883015     1539.3649      3.6337673      42.218251      51.162831      50.49097       0.8476       
       242   1.2088042      279.79602      4.1700939      1.2776584     -9.3987782     -8.1211198      4.5298558      0             -3.591264       0.57882988     1514.9779      3.6341423      42.045738      50.950996      50.176273      0.8476       
       243   1.2089583      281.33542      4.1930373      1.2771868     -9.4042543     -8.1270675      4.5128599      0             -3.6142077      0.57882961     1490.51        3.6345179      41.871274      50.73673       49.858981      0.8476       
       244   1.2091022      282.87498      4.215983       1.2767171     -9.4097309     -8.1330137      4.4958601      0             -3.6371536      0.57882934     1465.9619      3.6348943      41.694865      50.520043      49.539113      0.8476       
       245   1.2092503      284.41441      4.2389267      1.2762495     -9.4152076     -8.1389581      4.4788605      0             -3.6600976      0.57882907     1441.3347      3.6352714      41.516519      50.300943      49.216686      0.8476       
       246   1.2093946      285.95342      4.2618642      1.2757838     -9.4206842     -8.1449004      4.461865       0             -3.6830354      0.5788288      1416.6291      3.6356491      41.336243      50.079441      48.891716      0.8476       
       247   1.2095369      287.49173      4.2847911      1.2753201     -9.4261603     -8.1508402      4.4448776      0             -3.7059626      0.57882854     1391.846       3.6360276      41.154046      49.855547      48.564221      0.8476       
       248   1.2096851      289.02903      4.3077032      1.2748584     -9.4316357     -8.1567773      4.4279024      0             -3.728875       0.57882827     1366.9863      3.6364067      40.969936      49.629272      48.234219      0.8476       
       249   1.209829       290.56505      4.3305962      1.2743986     -9.43711       -8.1627114      4.4109432      0             -3.7517682      0.578828       1342.0509      3.6367866      40.78392       49.400624      47.901727      0.8476       
       250   1.2099981      292.0995       4.3534657      1.2739409     -9.4425829     -8.1686421      4.3940041      0             -3.774638       0.57882773     1317.0407      3.637167       40.596006      49.169615      47.566763      0.8476       
       251   1.2101435      293.63209      4.3763075      1.2734851     -9.4480541     -8.1745691      4.3770891      0             -3.79748        0.57882746     1291.9566      3.6375481      40.406203      48.936256      47.229344      0.8476       
       252   1.2102909      295.16253      4.3991172      1.2730312     -9.4535233     -8.1804921      4.360202       0             -3.82029        0.57882719     1266.7994      3.6379299      40.21452       48.700556      46.889489      0.8476       
       253   1.2104337      296.69054      4.4218907      1.2725794     -9.4589902     -8.1864108      4.343347       0             -3.8430638      0.57882692     1241.5701      3.6383122      40.020963      48.462527      46.547216      0.8476       
       254   1.2105743      298.21583      4.4446237      1.2721294     -9.4644543     -8.1923249      4.3265279      0             -3.865797       0.57882666     1216.2697      3.6386952      39.825543      48.222179      46.202543      0.8476       
       255   1.2107141      299.73811      4.4673118      1.2716815     -9.4699155     -8.198234       4.3097486      0             -3.8884854      0.57882639     1190.8989      3.6390788      39.628267      47.979524      45.855488      0.8476       
       256   1.2108593      301.25709      4.4899508      1.2712355     -9.4753734     -8.2041379      4.2930132      0             -3.9111247      0.57882612     1165.4588      3.639463       39.429144      47.734572      45.506069      0.8476       
       257   1.2110106      302.7725       4.5125366      1.2707914     -9.4808277     -8.2100363      4.2763255      0             -3.9337107      0.57882586     1139.9501      3.6398477      39.228184      47.487335      45.154306      0.8476       
       258   1.211153       304.28405      4.5350648      1.2703493     -9.486278      -8.2159287      4.2596895      0             -3.9562392      0.57882559     1114.374       3.6402331      39.025394      47.237824      44.800217      0.8476       
       259   1.2112992      305.79145      4.5575312      1.2699091     -9.4917241     -8.221815       4.2431091      0             -3.9787059      0.57882533     1088.7312      3.6406189      38.820783      46.986051      44.443821      0.8476       
       260   1.2114421      307.29443      4.5799316      1.2694709     -9.4971656     -8.2276947      4.2265881      0             -4.0011066      0.57882507     1063.0227      3.6410053      38.614362      46.732026      44.085135      0.8476       
       261   1.2115825      308.7927       4.6022619      1.2690346     -9.5026022     -8.2335676      4.2101305      0             -4.0234371      0.5788248      1037.2495      3.6413923      38.406138      46.475762      43.724181      0.8476       
       262   1.2117228      310.28597      4.6245177      1.2686002     -9.5080335     -8.2394333      4.1937401      0             -4.0456932      0.57882454     1011.4125      3.6417798      38.196121      46.21727       43.360976      0.8476       
       263   1.2118699      311.77398      4.6466951      1.2681678     -9.5134593     -8.2452916      4.1774208      0             -4.0678708      0.57882428     985.51256      3.6421678      37.984321      45.956562      42.99554       0.8476       
       264   1.2120228      313.25644      4.6687897      1.2677372     -9.5188793     -8.251142       4.1611763      0             -4.0899657      0.57882402     959.55073      3.6425563      37.770746      45.693651      42.627892      0.8476       
       265   1.2121635      314.73307      4.6907975      1.2673086     -9.524293      -8.2569844      4.1450106      0             -4.1119738      0.57882376     933.52794      3.6429452      37.555407      45.428548      42.258051      0.8476       
       266   1.212335       316.2036       4.7127144      1.2668819     -9.5297002     -8.2628183      4.1289274      0             -4.1338909      0.5788235      907.44512      3.6433347      37.338312      45.161265      41.886038      0.8476       
       267   1.2124797      317.66775      4.7345361      1.2664571     -9.5351006     -8.2686434      4.1129306      0             -4.1557129      0.57882325     881.30324      3.6437246      37.119472      44.891815      41.511871      0.8476       
       268   1.2126201      319.12525      4.7562587      1.2660342     -9.5404938     -8.2744595      4.0970238      0             -4.1774358      0.57882299     855.10327      3.644115       36.898895      44.62021       41.13557       0.8476       
       269   1.2127594      320.57582      4.7778781      1.2656132     -9.5458794     -8.2802662      4.0812108      0             -4.1990554      0.57882274     828.84618      3.6445058      36.676593      44.346463      41.106428      0.8476       
       270   1.2129133      322.01919      4.7993902      1.2651941     -9.5512573     -8.2860632      4.0654954      0             -4.2205677      0.57882249     802.53292      3.6448971      36.452574      44.070587      41.38425       0.8476       
       271   1.2130589      323.4551       4.820791       1.2647769     -9.556627      -8.2918501      4.0498813      0             -4.2419688      0.57882223     776.16449      3.6452888      36.22685       43.792593      41.660704      0.8476       
       272   1.2132016      324.88326      4.8420765      1.2643616     -9.5619882     -8.2976267      4.0343722      0             -4.2632545      0.57882198     749.74185      3.6456808      35.999429      43.512495      41.935775      0.8476       
       273   1.2133419      326.30342      4.8632426      1.2639481     -9.5673407     -8.3033925      4.0189716      0             -4.2844209      0.57882174     723.266        3.6460733      35.770322      43.230306      42.209451      0.8476       
       274   1.2134876      327.71532      4.8842855      1.2635366     -9.572684      -8.3091474      4.0036834      0             -4.305464       0.57882149     696.73792      3.6464662      35.539539      42.946039      42.481717      0.8476       
       275   1.2136295      329.11867      4.9052012      1.2631269     -9.5780178     -8.314891       3.988511       0             -4.32638        0.57882124     670.1586       3.6468595      35.307091      42.659707      42.752562      0.8476       
       276   1.21377        330.51323      4.9259858      1.262719      -9.5833419     -8.3206229      3.9734581      0             -4.3471648      0.578821       643.52904      3.6472531      35.072988      42.371323      43.021972      0.8476       
       277   1.2139228      331.89873      4.9466353      1.262313      -9.5886558     -8.3263428      3.9585282      0             -4.3678145      0.57882076     616.85024      3.647647       34.83724       42.080901      43.289933      0.8476       
       278   1.214067       333.27491      4.9671459      1.2619089     -9.5939593     -8.3320504      3.943725       0             -4.3883254      0.57882052     590.12321      3.6480414      34.599858      41.788454      43.556434      0.8476       
       279   1.2142076      334.64151      4.9875139      1.2615066     -9.599252      -8.3377454      3.9290518      0             -4.4086936      0.57882028     563.34894      3.648436       34.360853      41.493995      43.82146       0.8476       
       280   1.2143471      335.99828      5.0077353      1.2611062     -9.6045337     -8.3434275      3.9145123      0             -4.4289152      0.57882004     536.52847      3.648831       34.120235      41.197539      44.084999      0.8476       
       281   1.2144932      337.34497      5.0278064      1.2607076     -9.6098039     -8.3490963      3.9001097      0             -4.4489866      0.5788198      509.66279      3.6492262      33.878016      40.899099      44.347039      0.8476       
       282   1.4512298      338.68132      5.0477234      1.2603108     -9.6150623     -8.3547515      3.8858477      0             -4.4689038      0.57881957     482.75294      3.6496218      33.634205      40.598688      44.607567      0.8476       
       283   1.451395       340.00708      5.0674826      1.2599159     -9.6203087     -8.3603928      3.8717296      0             -4.4886633      0.57881934     455.79994      3.6500176      33.388815      40.296322      44.86657       0.8476       
       284   1.4515507      341.32201      5.0870803      1.2595228     -9.6255427     -8.3660199      3.8577587      0             -4.5082612      0.57881911     428.80482      3.6504138      33.141855      39.992013      45.124036      0.8476       
       285   1.4516975      342.62585      5.1065129      1.2591315     -9.6307639     -8.3716324      3.8439384      0             -4.527694       0.57881888     401.76862      3.6508101      32.893338      39.685777      45.379951      0.8476       
       286   1.4518419      343.91837      5.1257767      1.258742      -9.6359721     -8.3772301      3.830272       0             -4.5469581      0.57881865     374.69236      3.6512068      32.643275      39.377627      45.634305      0.8476       
       287   1.4520103      345.19933      5.1448681      1.2583543     -9.6411669     -8.3828125      3.8167628      0             -4.5660497      0.57881843     347.5771       3.6516036      32.391675      39.067577      45.887084      0.8476       
       288   1.4521657      346.46848      5.1637836      1.2579684     -9.6463479     -8.3883795      3.8034141      0             -4.5849654      0.57881821     320.42387      3.6520007      32.138552      38.755643      46.138276      0.8476       
       289   1.452311       347.72559      5.1825196      1.2575844     -9.6515149     -8.3939306      3.7902289      0             -4.6037016      0.57881799     293.23374      3.6523981      31.883917      38.441838      46.387869      0.8476       
       290   1.4524547      348.97042      5.2010726      1.2572021     -9.6566675     -8.3994655      3.7772106      0             -4.6222549      0.57881777     266.00775      3.6527956      31.62778       38.126177      46.635852      0.8476       
       291   1.4525996      350.20274      5.2194392      1.2568216     -9.6618055     -8.4049839      3.7643623      0             -4.6406216      0.57881756     238.74696      3.6531933      31.370154      37.808676      46.882211      0.8476       
       292   1.4527486      351.42232      5.2376159      1.2564428     -9.6669284     -8.4104855      3.751687       0             -4.6587986      0.57881734     211.45244      3.6535912      31.11105       37.489348      47.126935      0.8476       
       293   1.4529025      352.62893      5.2555994      1.2560659     -9.6720359     -8.41597        3.7391878      0             -4.6767822      0.57881713     184.12525      3.6539893      30.85048       37.168209      47.370013      0.8476       
       294   1.4530501      353.82236      5.2733862      1.2556906     -9.6771277     -8.4214371      3.7268678      0             -4.6945693      0.57881693     156.76647      3.6543875      30.588456      36.845273      47.611432      0.8476       
       295   1.4532006      355.00237      5.2909731      1.2553172     -9.6822036     -8.4268864      3.7147299      0             -4.7121564      0.57881672     129.37716      3.6547858      30.324989      36.520557      47.85118       0.8476       
       296   1.4533464      356.16874      5.3083568      1.2549455     -9.6872631     -8.4323175      3.7027772      0             -4.7295403      0.57881652     101.95842      3.6551843      30.060092      36.194074      48.089247      0.8476       
       297   1.4534909      357.32127      5.3255341      1.2545756     -9.6923059     -8.4377303      3.6910125      0             -4.7467178      0.57881632     74.511312      3.655583       29.793777      35.86584       48.325621      0.8476       
       298   1.4536358      358.45973      5.3425018      1.2542074     -9.6973317     -8.4431244      3.6794387      0             -4.7636856      0.57881612     47.036939      3.6559817      29.526055      35.535871      48.560289      0.8476       
       299   1.4537961      359.58391      5.3592566      1.2538409     -9.7023402     -8.4484993      3.6680586      0             -4.7804407      0.57881592     19.536388      3.6563805      29.256939      35.204182      48.793242      0.8476       
       300   1.4539511      360.6936       5.3757956      1.2534761     -9.7073311     -8.453855       3.6568751      0             -4.7969798      0.57881573    -7.9892463      3.6567795      28.986441      34.870789      49.024467      0.8476       
       301   1.4540958      361.7886       5.3921155      1.2531131     -9.712304      -8.4591909      3.6458909      0             -4.8133         0.57881554    -35.538863      3.6571785      28.714574      34.535707      49.253953      0.8476       
       302   1.4542454      362.86871      5.4082134      1.2527518     -9.7172586     -8.4645068      3.6351087      0             -4.8293981      0.57881535    -63.111357      3.6575776      28.441349      34.198951      49.48169       0.8476       
       303   1.4543903      363.93371      5.4240864      1.2523922     -9.7221946     -8.4698024      3.6245312      0             -4.8452712      0.57881516    -90.705623      3.6579767      28.274091      33.860539      49.707665      0.8476       
       304   1.4545333      364.98343      5.4397313      1.2520343     -9.7271117     -8.4750774      3.614161       0             -4.8609164      0.57881498    -118.32055      3.6583759      28.183875      33.527069      49.931869      0.8476       
       305   1.4546763      366.01765      5.4551455      1.2516781     -9.7320094     -8.4803314      3.6040007      0             -4.8763307      0.5788148     -145.95501      3.6587751      28.092288      33.305937      50.154291      0.8476       
       306   1.454825       367.03619      5.4703259      1.2513235     -9.7368876     -8.4855641      3.5940529      0             -4.8915112      0.57881463    -173.6079       3.6591743      27.999335      33.083113      50.374918      0.8476       
       307   1.4549794      368.03887      5.4852697      1.2509707     -9.7417459     -8.4907753      3.58432        0             -4.9064553      0.57881445    -201.27809      3.6595735      27.905019      32.858608      50.593742      0.8476       
       308   1.4551255      369.02548      5.4999743      1.2506195     -9.746584      -8.4959645      3.5748045      0             -4.9211601      0.57881428    -228.96444      3.6599727      27.809345      32.632433      50.810751      0.8476       
       309   1.455268       369.99586      5.5144369      1.25027       -9.7514015     -8.5011315      3.5655087      0             -4.9356228      0.57881411    -256.66584      3.6603719      27.712318      32.404599      51.025935      0.8476       
       310   1.4554215      370.94982      5.5286548      1.2499221     -9.7561982     -8.506276       3.5564352      0             -4.9498408      0.57881395    -284.38113      3.6607711      27.613941      32.175118      51.239283      0.8476       
       311   1.4555694      371.88719      5.5426254      1.2495759     -9.7609736     -8.5113977      3.5475861      0             -4.9638116      0.57881379    -312.10919      3.6611703      27.514219      31.944         51.450785      0.8476       
       312   1.455715       372.80779      5.556346       1.2492314     -9.7657275     -8.5164962      3.5389638      0             -4.9775324      0.57881363    -339.84887      3.6615694      27.413157      31.711256      51.660431      0.8476       
       313   1.455872       373.71145      5.5698143      1.2488885     -9.7704597     -8.5215712      3.5305704      0             -4.9910008      0.57881347    -367.59901      3.6619684      27.31076       31.476899      51.868211      0.8476       
       314   1.4560291      374.59801      5.5830276      1.2485472     -9.7751696     -8.5266225      3.5224082      0             -5.0042143      0.57881332    -395.35848      3.6623674      27.207031      31.24094       52.074114      0.8476       
       315   1.4561845      375.46731      5.5959836      1.2482075     -9.7798571     -8.5316496      3.5144792      0             -5.0171704      0.57881317    -423.12611      3.6627663      27.101976      31.00339       52.27813       0.8476       
       316   1.4563306      376.31917      5.6086799      1.2478694     -9.7845218     -8.5366524      3.5067855      0             -5.0298668      0.57881302    -450.90074      3.6631651      26.9956        30.76426       52.480251      0.8476       
       317   1.4564795      377.15346      5.6211141      1.247533      -9.7891634     -8.5416304      3.4993292      0             -5.0423012      0.57881288    -478.68121      3.6635637      26.887907      30.523563      52.680465      0.8476       
       318   1.4566252      377.97001      5.633284       1.2471982     -9.7937816     -8.5465835      3.4921123      0             -5.0544712      0.57881274    -506.46636      3.6639623      26.778903      30.281311      52.878763      0.8476       
       319   1.456768       378.76867      5.6451873      1.2468649     -9.7983761     -8.5515112      3.4851366      0             -5.0663747      0.5788126     -534.25502      3.6643608      26.668591      30.037514      53.075136      0.8476       
       320   1.4569284      379.5493       5.6568218      1.2465332     -9.8029466     -8.5564133      3.478404       0             -5.0780093      0.57881247    -562.046        3.6647591      26.556979      29.792186      53.269574      0.8476       
       321   1.4570809      380.31175      5.6681855      1.2462032     -9.8074927     -8.5612895      3.4719163      0             -5.0893732      0.57881233    -589.83813      3.6651572      26.44407       29.545338      53.462067      0.8476       
       322   1.4572262      381.0559       5.6792762      1.2458746     -9.8120141     -8.5661394      3.4656754      0             -5.100464       0.57881221    -617.63023      3.6655552      26.32987       29.296982      53.652607      0.8476       
       323   1.4573712      381.78159      5.690092       1.2455477     -9.8165105     -8.5709628      3.459683       0             -5.1112799      0.57881208    -645.42112      3.665953       26.214383      29.04713       53.841183      0.8476       
       324   1.457522       382.4887       5.7006308      1.2452223     -9.8209817     -8.5757594      3.4539406      0             -5.1218188      0.57881196    -673.20961      3.6663506      26.097617      28.795796      54.027788      0.8476       
       325   1.457669       383.1771       5.7108907      1.2448984     -9.8254273     -8.5805288      3.44845        0             -5.1320789      0.57881184    -700.99449      3.6667481      25.979575      28.54299       54.212411      0.8476       
       326   1.4578133      383.84666      5.7208699      1.2445761     -9.829847      -8.5852708      3.4432126      0             -5.1420582      0.57881173    -728.77459      3.6671453      25.860264      28.288727      54.395044      0.8476       
       327   1.4579654      384.49727      5.7305666      1.2442553     -9.8342404     -8.5899851      3.4382301      0             -5.151755       0.57881162    -756.54869      3.6675423      25.739689      28.033017      54.575679      0.8476       
       328   1.4581172      385.1288       5.739979       1.2439361     -9.8386074     -8.5946713      3.4335038      0             -5.1611675      0.57881151    -784.3156       3.6679391      25.617855      27.775874      54.754305      0.8476       
       329   1.4582874      385.74115      5.7491054      1.2436183     -9.8429475     -8.5993292      3.4290351      0             -5.170294       0.57881141    -812.07411      3.6683356      25.494768      27.51731       54.930915      0.8476       
       330   1.7703435      386.33419      5.7579443      1.2433021     -9.8472605     -8.6039584      3.4248255      0             -5.1791329      0.57881131    -839.823        3.6687319      25.370435      27.257339      55.1055        0.8476       
       331   1.7705376      386.90784      5.7664939      1.2429874     -9.8515461     -8.6085588      3.4208761      0             -5.1876826      0.57881121    -867.56107      3.6691279      25.24486       26.995972      55.278052      0.8476       
       332   1.7706942      387.46197      5.7747527      1.2426741     -9.855804      -8.6131299      3.4171883      0             -5.1959416      0.57881112    -895.2871       3.6695236      25.11805       26.733224      55.448562      0.8476       
       333   1.7708441      387.9965       5.7827194      1.2423624     -9.8600339     -8.6176715      3.4137631      0             -5.2039083      0.57881103    -922.99986      3.6699191      24.99001       26.469106      55.617021      0.8476       
       334   1.7710158      388.51133      5.7903924      1.2420521     -9.8642354     -8.6221833      3.4106018      0             -5.2115814      0.57881094    -950.69815      3.6703142      24.860747      26.203631      55.783423      0.8476       
       335   1.7711735      389.00637      5.7977704      1.2417433     -9.8684083     -8.626665       3.4077055      0             -5.2189596      0.57881086    -978.38072      3.6707091      24.730267      25.936814      55.947758      0.8476       
       336   1.7713222      389.48152      5.8048522      1.2414359     -9.8725523     -8.6311164      3.405075       0             -5.2260414      0.57881078    -1006.0464      3.6711036      24.598576      25.668667      56.110019      0.8476       
       337   1.7714705      389.93671      5.8116364      1.24113       -9.876667      -8.635537       3.4027114      0             -5.2328257      0.57881071    -1033.6938      3.6714978      24.465679      25.399204      56.270198      0.8476       
       338   1.7716156      390.37186      5.8181218      1.2408255     -9.8807523     -8.6399268      3.4006156      0             -5.2393112      0.57881064    -1061.3219      3.6718917      24.331584      25.128437      56.428286      0.8476       
       339   1.771768       390.78689      5.8243075      1.2405225     -9.8848077     -8.6442853      3.3987884      0             -5.2454969      0.57881057    -1088.9293      3.6722852      24.196297      24.85638       56.584277      0.8476       
       340   1.7719241      391.18173      5.8301922      1.2402209     -9.8888331     -8.6486123      3.3972306      0             -5.2513817      0.5788105     -1116.5148      3.6726783      24.059823      24.583046      56.738163      0.8476       
       341   1.7720715      391.55631      5.8357749      1.2399207     -9.8928281     -8.6529074      3.395943       0             -5.2569645      0.57881044    -1144.0771      3.6730711      23.92217       24.30845       56.889937      0.8476       
       342   1.7722229      391.91057      5.8410548      1.2396219     -9.8967924     -8.6571705      3.3949261      0             -5.2622444      0.57881039    -1171.6151      3.6734635      23.783344      24.032605      57.03959       0.8476       
       343   1.77237        392.24444      5.8460309      1.2393245     -9.9007258     -8.6614013      3.3941808      0             -5.2672205      0.57881033    -1199.1275      3.6738554      23.643351      23.755523      57.187116      0.8476       
       344   1.7725148      392.55788      5.8507023      1.2390285     -9.9046279     -8.6655994      3.3937074      0             -5.271892       0.57881028    -1226.613       3.674247       23.502198      23.47722       57.332507      0.8476       
       345   1.7726589      392.85082      5.8550684      1.2387339     -9.9084985     -8.6697646      3.3935065      0             -5.2762581      0.57881024    -1254.0703      3.6746382      23.359892      23.197709      57.475757      0.8476       
       346   1.7728089      393.12322      5.8591283      1.2384406     -9.9123372     -8.6738966      3.3935786      0             -5.2803181      0.5788102     -1281.4982      3.6750289      23.21644       22.917004      57.616859      0.8476       
       347   1.7729752      393.37504      5.8628814      1.2381487     -9.9161439     -8.6779952      3.3939239      0             -5.2840713      0.57881016    -1308.8955      3.6754192      23.071848      22.635118      57.755805      0.8476       
       348   1.7731223      393.60624      5.8663272      1.2378582     -9.9199182     -8.68206        3.394543       0             -5.2875171      0.57881012    -1336.2609      3.6758091      22.926123      22.352066      57.892589      0.8476       
       349   1.7732777      393.81678      5.869465       1.237569      -9.9236599     -8.6860909      3.3954359      0             -5.2906549      0.57881009    -1363.593       3.6761984      22.779272      22.067862      58.027205      0.8476       
       350   1.7734268      394.00662      5.8722945      1.2372812     -9.9273686     -8.6900874      3.396603       0             -5.2934844      0.57881006    -1390.8907      3.6765873      22.631303      21.78252       58.159645      0.8476       
       351   1.7735724      394.17574      5.8748151      1.2369946     -9.9310441     -8.6940495      3.3980444      0             -5.296005       0.57881004    -1418.1526      3.6769758      22.482221      21.496053      58.289904      0.8476       
       352   1.7737214      394.32412      5.8770265      1.2367094     -9.9346861     -8.6979767      3.3997602      0             -5.2982165      0.57881002    -1445.3776      3.6773637      22.332035      21.208477      58.417974      0.8476       
       353   1.7738713      394.45174      5.8789285      1.2364255     -9.9382944     -8.7018689      3.4017504      0             -5.3001185      0.57881       -1472.5642      3.6777511      22.180751      20.919806      58.543851      0.8476       
       354   1.774027       394.55857      5.8805208      1.2361429     -9.9418687     -8.7057257      3.404015       0             -5.3017108      0.57880999    -1499.7113      3.6781381      22.028377      20.630053      58.667527      0.8476       
       355   1.7741703      394.64461      5.8818031      1.2358616     -9.9454087     -8.709547       3.4065539      0             -5.3029931      0.57880998    -1526.8175      3.6785244      21.87492       20.339234      58.788997      0.8476       
       356   1.7743135      394.70985      5.8827755      1.2355816     -9.9489141     -8.7133324      3.409367       0             -5.3039655      0.57880998    -1553.8816      3.6789103      21.720386      20.047363      58.908255      0.8476       
       357   1.7744625      394.75429      5.8834377      1.2353029     -9.9523847     -8.7170818      3.412454       0             -5.3046278      0.57880998    -1580.9023      3.6792956      21.730479      19.754454      59.025294      0.8476       
       358   1.7746075      394.77792      5.8837899      1.2350254     -9.9558202     -8.7207948      3.4158148      0             -5.30498        0.57880998    -1607.8783      3.6796804      21.879621      19.460522      59.14011       0.8476       
       359   1.7747703      394.78075      5.8838322      1.2347492     -9.9592203     -8.7244711      3.419449       0             -5.3050222      0.57880999    -1634.8083      3.6800646      22.027737      19.165582      59.252697      0.8476       
       360   1.7749258      394.76279      5.8835645      1.2344742     -9.9625849     -8.7281107      3.4233562      0             -5.3047545      0.57881       -1661.691       3.6804482      22.174821      18.869648      59.363049      0.8476       
       361   1.7750743      394.72405      5.8829871      1.2342005     -9.9659135     -8.7317131      3.427536       0             -5.3041771      0.57881001    -1688.5251      3.6808312      22.320864      18.572735      59.47116       0.8476       
       362   1.7752174      394.66455      5.8821003      1.2339279     -9.9692061     -8.7352781      3.4319879      0             -5.3032903      0.57881003    -1715.3094      3.6812136      22.46586       18.274858      59.577027      0.8476       
       363   1.7753607      394.58431      5.8809043      1.2336566     -9.9724622     -8.7388056      3.4367113      0             -5.3020943      0.57881005    -1742.0425      3.6815955      22.609801      17.976032      59.680643      0.8476       
       364   1.7755194      394.48334      5.8793996      1.2333865     -9.9756818     -8.7422952      3.4417058      0             -5.3005895      0.57881008    -1768.7231      3.6819767      22.752681      17.676272      59.782003      0.8476       
       365   1.7756652      394.36169      5.8775864      1.2331177     -9.9788644     -8.7457468      3.4469704      0             -5.2987763      0.57881011    -1795.3499      3.6823572      22.894492      17.375592      59.881103      0.8476       
       366   1.7758063      394.21938      5.8754654      1.2328499     -9.9820099     -8.74916        3.4525047      0             -5.2966553      0.57881014    -1821.9217      3.6827372      23.035227      17.074007      59.977938      0.8476       
       367   1.7759632      394.05645      5.8730371      1.2325834     -9.9851181     -8.7525346      3.4583077      0             -5.2942269      0.57881018    -1848.4371      3.6831305      23.17488       16.771534      60.072503      0.8476       
       368   1.7761083      393.87294      5.8703021      1.2323181     -9.9881886     -8.7558705      3.4643786      0             -5.2914919      0.57881022    -1874.8948      3.6836297      23.313443      16.468186      60.164793      0.8476       
       369   1.7762501      393.66889      5.867261       1.2320539     -9.9912212     -8.7591673      3.4707166      0             -5.2884507      0.57881026    -1901.2935      3.6841291      23.45091       16.16398       60.254804      0.8476       
       370   1.7763915      393.44436      5.8639146      1.2317908     -9.9942157     -8.7624249      3.4773207      0             -5.2851042      0.57881031    -1927.6319      3.684629       23.587274      15.858929      60.342532      0.8476       
       371   1.7765381      393.1994       5.8602636      1.2315289     -9.9971719     -8.765643       3.4841898      0             -5.2814532      0.57881036    -1953.9088      3.6851291      23.722528      15.55305       60.427972      0.8476       
       372   1.7766815      392.93405      5.8563089      1.2312681     -10.00009      -8.7688214      3.4913229      0             -5.2774985      0.57881042    -1980.1227      3.6856295      23.856665      15.634337      60.51112       0.8476       
       373   1.7768232      392.64839      5.8520514      1.2310085     -10.002968     -8.7719598      3.4987189      0             -5.2732409      0.57881048    -2006.2724      3.6861302      23.989679      15.723621      60.591972      0.8476       
       374   1.7769737      392.34248      5.8474921      1.23075       -10.005808     -8.775058       3.5063765      0             -5.2686815      0.57881054    -2032.3565      3.6866311      24.121563      15.812074      60.670524      0.8476       
       375   1.7771225      392.01639      5.8426319      1.2304925     -10.008608     -8.7781159      3.5142946      0             -5.2638213      0.57881061    -2058.3739      3.6871323      24.252311      15.899692      60.746773      0.8476       
       376   1.7772664      391.67018      5.837472       1.2302362     -10.011369     -8.7811331      3.5224718      0             -5.2586614      0.57881068    -2084.323       3.6876337      24.381916      15.986473      60.820714      0.8476       
       377   1.777408       391.30394      5.8320136      1.2299809     -10.01409      -8.7841095      3.5309067      0             -5.2532028      0.57881075    -2110.2027      3.6881352      24.510371      16.072412      60.892344      0.8476       
       378   1.9708717      390.91774      5.8262577      1.2297267     -10.016772     -8.7870449      3.5395981      0             -5.2474469      0.57881083    -2136.0115      3.6886369      24.637671      16.157506      60.96166       0.8476       
       379   1.97106        390.51168      5.8202057      1.2294736     -10.019413     -8.789939       3.5485443      0             -5.2413948      0.57881091    -2161.7483      3.6891388      24.763809      16.241751      61.028658      0.8476       
       380   1.9712241      390.08583      5.8138588      1.2292215     -10.022013     -8.7927917      3.5577439      0             -5.2350478      0.57881099    -2187.4117      3.6896408      24.888779      16.325143      61.093335      0.8476       
       381   1.9713703      389.64029      5.8072185      1.2289705     -10.024573     -8.7956027      3.5671953      0             -5.2284074      0.57881108    -2213.0003      3.6901428      25.012574      16.407678      61.155687      0.8476       
       382   1.9715219      389.17516      5.8002862      1.2287205     -10.027092     -8.7983718      3.5768968      0             -5.221475       0.57881117    -2238.5128      3.690645       25.135189      16.489354      61.215713      0.8476       
       383   1.9716682      388.69054      5.7930633      1.2284715     -10.02957      -8.8010988      3.5868468      0             -5.214252       0.57881127    -2263.948       3.6911471      25.256617      16.570166      61.273408      0.8476       
       384   1.9718126      388.18652      5.7855514      1.2282235     -10.032007     -8.8037836      3.5970435      0             -5.20674        0.57881137    -2289.3045      3.6916494      25.376853      16.650111      61.32877       0.8476       
       385   1.9719733      387.66322      5.7777521      1.2279765     -10.034402     -8.8064258      3.6074852      0             -5.1989406      0.57881147    -2314.581       3.6921516      25.49589       16.729187      61.381796      0.8476       
       386   1.9721206      387.12075      5.7696671      1.2277306     -10.036756     -8.8090254      3.6181699      0             -5.1908555      0.57881158    -2339.7761      3.6926538      25.613722      16.807388      61.432484      0.8476       
       387   1.9722637      386.55922      5.761298       1.2274856     -10.039068     -8.8115821      3.6290958      0             -5.1824863      0.57881169    -2364.8886      3.693156       25.730344      16.884713      61.480831      0.8476       
       388   1.9724063      385.97875      5.7526467      1.2272416     -10.041337     -8.8140957      3.6402609      0             -5.1738349      0.5788118     -2389.9172      3.6936581      25.84575       16.961157      61.526835      0.8476       
       389   1.9725541      385.37946      5.7437149      1.2269985     -10.043565     -8.8165661      3.6516631      0             -5.164903       0.57881192    -2414.8604      3.6941601      25.959933      17.036718      61.570494      0.8476       
       390   1.9726968      384.76149      5.7345045      1.2267564     -10.045749     -8.818993       3.6633005      0             -5.1556925      0.57881204    -2439.7171      3.694662       26.072889      17.111392      61.611804      0.8476       
       391   1.9728382      384.12495      5.7250176      1.2265152     -10.047892     -8.8213763      3.6751709      0             -5.1462054      0.57881216    -2464.4858      3.6951639      26.184612      17.185176      61.650766      0.8476       
       392   1.97299        383.46999      5.715256       1.226275      -10.049991     -8.8237158      3.6872721      0             -5.1364437      0.57881229    -2489.1654      3.6956655      26.295096      17.258068      61.687376      0.8476       
       393   1.9731431      382.79673      5.7052217      1.2260357     -10.052047     -8.8260113      3.6996019      0             -5.1264093      0.57881242    -2513.7543      3.696167       26.404336      17.330063      61.721632      0.8476       
       394   1.9732884      382.10533      5.694917       1.2257973     -10.05406      -8.8282626      3.7121581      0             -5.1161045      0.57881255    -2538.2515      3.6966683      26.512326      17.40116       61.753534      0.8476       
       395   1.9734296      381.39592      5.6843439      1.2255597     -10.056029     -8.8304696      3.7249383      0             -5.1055312      0.57881269    -2562.6554      3.6971694      26.61906       17.471354      61.783079      0.8476       
       396   1.9735899      380.66865      5.6735047      1.2253231     -10.057955     -8.832632       3.7379401      0             -5.0946919      0.57881283    -2586.9649      3.6976703      26.724535      17.540643      61.810266      0.8476       
       397   1.9737329      379.92367      5.6624015      1.2250874     -10.059837     -8.8347497      3.7511612      0             -5.0835886      0.57881297    -2611.1785      3.6981709      26.828743      17.609025      61.835094      0.8476       
       398   1.9738751      379.16115      5.6510368      1.2248525     -10.061675     -8.8368226      3.764599       0             -5.0722237      0.57881312    -2635.2951      3.6986713      26.931681      17.676495      61.857561      0.8476       
       399   1.9740255      378.38123      5.6394128      1.2246185     -10.063469     -8.8388505      3.778251       0             -5.0605995      0.57881327    -2659.3132      3.6991713      27.033343      17.743053      61.877666      0.8476       
       400   1.9741741      377.58407      5.627532       1.2243853     -10.065219     -8.8408332      3.7921146      0             -5.0487185      0.57881342    -2683.2316      3.699671       27.133723      17.808694      61.895409      0.8476       
       401   1.9743177      376.76985      5.6153967      1.224153      -10.066924     -8.8427705      3.8061873      0             -5.0365832      0.57881357    -2707.0489      3.7001704      27.232817      17.873416      61.910788      0.8476       
       402   1.9744599      375.93873      5.6030097      1.2239215     -10.068584     -8.8446623      3.8204664      0             -5.0241959      0.57881373    -2730.764       3.7006694      27.330621      17.937217      61.923803      0.8476       
       403   1.9746209      375.09088      5.5903733      1.2236908     -10.070199     -8.8465085      3.8349491      0             -5.0115594      0.5788139     -2754.3753      3.7011681      27.427128      18.000093      61.934453      0.8476       
       404   1.974769       374.22647      5.5774902      1.223461      -10.07177      -8.8483089      3.8496327      0             -4.9986761      0.57881406    -2777.8817      3.7016663      27.522334      18.062043      61.942737      0.8476       
       405   1.9749205      373.3457       5.564363       1.2232319     -10.073295     -8.8500632      3.8645145      0             -4.9855488      0.57881423    -2801.2819      3.7021641      27.616235      18.123063      61.948655      0.8476       
       406   1.9750645      372.44873      5.5509945      1.2230036     -10.074775     -8.8517715      3.8795914      0             -4.9721801      0.5788144     -2824.5745      3.7026615      27.708825      18.183152      61.952207      0.8476       
       407   1.9752129      371.53575      5.5373874      1.2227761     -10.07621      -8.8534335      3.8948607      0             -4.9585729      0.57881457    -2847.7583      3.7031584      27.800101      18.242306      61.953393      0.8476       
       408   1.9753606      370.60695      5.5235446      1.2225493     -10.077598     -8.8550491      3.9103193      0             -4.9447298      0.57881475    -2870.8319      3.7036548      27.890057      18.300524      61.952212      0.8476       
       409   1.9755057      369.66252      5.5094687      1.2223233     -10.078942     -8.8566182      3.9259644      0             -4.9306538      0.57881493    -2893.794       3.7041507      27.978689      18.357803      61.948664      0.8476       
       410   1.9756531      368.70265      5.4951628      1.2220981     -10.080239     -8.8581406      3.9417929      0             -4.9163477      0.57881511    -2916.6435      3.7046461      28.065993      18.41414       61.94275       0.8476       
       411   1.9758046      367.72755      5.4806298      1.2218735     -10.08149      -8.8596162      3.9578017      0             -4.9018145      0.5788153     -2939.3789      3.7051409      28.151963      18.469534      61.93447       0.8476       
       412   1.9759592      366.7374       5.4658727      1.2216497     -10.082695     -8.8610449      3.9739877      0             -4.8870572      0.57881549    -2961.999       3.7056351      28.236597      18.523983      61.923824      0.8476       
       413   1.9761187      365.73242      5.4508944      1.2214266     -10.083853     -8.8624264      3.9903477      0             -4.8720787      0.57881568    -2984.5025      3.7061288      28.319889      18.577484      61.910812      0.8476       
       414   1.9762736      364.71281      5.4356981      1.2212042     -10.084965     -8.8637608      4.0068786      0             -4.8568822      0.57881587    -3006.8881      3.7066218      28.401836      18.630034      61.895436      0.8476       
       415   1.9764246      363.67878      5.4202868      1.2209825     -10.08603      -8.8650479      4.0235771      0             -4.8414708      0.57881607    -3029.1546      3.7071142      28.482433      18.681633      61.877696      0.8476       
       416   1.9765711      362.63054      5.4046638      1.2207615     -10.087049     -8.8662875      4.0404399      0             -4.8258476      0.57881627    -3051.3007      3.7076059      28.561676      18.732278      61.857593      0.8476       
       417   1.9767174      361.56831      5.3888322      1.2205412     -10.088021     -8.8674795      4.0574637      0             -4.8100158      0.57881647    -3073.325       3.708097       28.639561      18.781967      61.835127      0.8476       
       418   1.9768712      360.4923       5.3727953      1.2203215     -10.088945     -8.8686239      4.0746452      0             -4.7939786      0.57881667    -3095.2264      3.7085873      28.716085      18.830698      61.8103        0.8476       
       419   1.9770298      359.40273      5.3565563      1.2201024     -10.089823     -8.8697205      4.091981       0             -4.7777395      0.57881688    -3117.0035      3.709077       28.791243      18.878469      61.783114      0.8476       
       420   1.9771755      358.29983      5.3401186      1.219884      -10.090653     -8.8707692      4.1094676      0             -4.7613015      0.57881709    -3138.6551      3.7095658      28.865031      18.925279      61.753568      0.8476       
       421   1.9773258      357.18381      5.3234855      1.2196662     -10.091436     -8.8717698      4.1271016      0             -4.7446682      0.5788173     -3160.18        3.710054       28.937447      18.971126      61.721665      0.8476       
       422   1.9774743      356.05492      5.3066604      1.219449      -10.092171     -8.8727224      4.1448795      0             -4.7278429      0.57881751    -3181.5768      3.7105413      29.008486      19.016007      61.687406      0.8476       
       423   1.9776207      354.91338      5.2896468      1.2192325     -10.092859     -8.8736268      4.1627977      0             -4.7108291      0.57881773    -3202.8444      3.7110278      29.078144      19.059922      61.650793      0.8476       
       424   1.9777683      353.75942      5.2724481      1.2190165     -10.093499     -8.8744828      4.1808526      0             -4.6936302      0.57881795    -3223.9814      3.7115136      29.146419      19.102868      61.611828      0.8476       
       425   1.9779286      352.59328      5.2550679      1.2188011     -10.094092     -8.8752904      4.1990407      0             -4.6762497      0.57881817    -3244.9866      3.7119984      29.213306      19.144844      61.570511      0.8476       
       426   2.2028116      351.41519      5.2375097      1.2185863     -10.094636     -8.8760496      4.2173583      0             -4.6586913      0.57881839    -3265.8589      3.7124824      29.278803      19.185849      61.526846      0.8476       
       427   2.2029742      350.2254       5.219777       1.218372      -10.095132     -8.8767601      4.2358017      0             -4.6409584      0.57881862    -3286.5968      3.7129655      29.342906      19.225881      61.480834      0.8476       
       428   2.2031307      349.02415      5.2018735      1.2181583     -10.09558      -8.877422       4.2543673      0             -4.6230547      0.57881885    -3307.1993      3.7134477      29.405611      19.264939      61.432478      0.8476       
       429   2.2032941      347.81169      5.1838029      1.2179452     -10.09598      -8.8780351      4.2730513      0             -4.6049838      0.57881908    -3327.6651      3.713929       29.466916      19.30302       61.38178       0.8476       
       430   2.2034414      346.58826      5.1655688      1.2177325     -10.096332     -8.8785993      4.2918499      0             -4.5867495      0.57881931    -3347.9929      3.7144093      29.526817      19.340125      61.328742      0.8476       
       431   2.2035826      345.3541       5.1471749      1.2175204     -10.096635     -8.8791147      4.3107593      0             -4.5683554      0.57881954    -3368.1815      3.7148887      29.585312      19.376251      61.273366      0.8476       
       432   2.2037288      344.10949      5.1286251      1.2173088     -10.09689      -8.879581       4.3297757      0             -4.5498053      0.57881978    -3388.2297      3.7153671      29.642396      19.411397      61.215656      0.8476       
       433   2.2038712      342.85465      5.109923       1.2170977     -10.097096     -8.8799983      4.3488953      0             -4.531103       0.57882001    -3408.1363      3.7158444      29.698069      19.445563      61.155614      0.8476       
       434   2.2040253      341.58987      5.0910725      1.2168871     -10.097253     -8.8803664      4.3681141      0             -4.5122523      0.57882025    -3427.9002      3.7163208      29.752326      19.478746      61.093243      0.8476       
       435   2.204166       340.31538      5.0720775      1.2166769     -10.097362     -8.8806853      4.3874283      0             -4.493257       0.5788205     -3447.52        3.716796       29.805164      19.510946      61.028546      0.8476       
       436   2.2043165      339.03145      5.0529417      1.2164672     -10.097422     -8.8809549      4.4068339      0             -4.474121       0.57882074    -3466.9945      3.7172702      29.856582      19.542163      60.961526      0.8476       
       437   2.20446        337.73834      5.0336692      1.216258      -10.097433     -8.8811752      4.426327       0             -4.4548482      0.57882098    -3486.3227      3.7177434      29.906576      19.572393      60.892186      0.8476       
       438   2.2046027      336.43632      5.0142638      1.2160492     -10.097395     -8.8813461      4.4459035      0             -4.4354426      0.57882123    -3505.5033      3.7182154      29.955144      19.601638      60.820529      0.8476       
       439   2.2047484      335.12565      4.9947295      1.2158408     -10.097308     -8.8814675      4.4655595      0             -4.415908       0.57882148    -3524.5351      3.7186863      30.002284      19.923077      60.74656       0.8476       
       440   2.2048987      333.80659      4.9750703      1.2156329     -10.097172     -8.8815394      4.4852909      0             -4.3962485      0.57882173    -3543.4169      3.719156       30.047992      20.315138      60.67028       0.8476       
       441   2.2050426      332.47943      4.9552901      1.2154254     -10.096987     -8.8815618      4.5050937      0             -4.3764681      0.57882198    -3562.1476      3.7196246      30.092267      20.70625       60.591695      0.8476       
       442   2.2051826      331.14442      4.935393       1.2152183     -10.096753     -8.8815345      4.5249637      0             -4.3565708      0.57882223    -3580.726       3.720092       30.135106      21.096396      60.510808      0.8476       
       443   2.2053297      329.80184      4.9153831      1.2150115     -10.096469     -8.8814576      4.544897       0             -4.3365606      0.57882248    -3599.151       3.7205581      30.176508      21.485555      60.427622      0.8476       
       444   2.2054713      328.45196      4.8952645      1.2148052     -10.096136     -8.881331       4.5648893      0             -4.3164417      0.57882274    -3617.4213      3.7210231      30.216469      21.873708      60.342142      0.8476       
       445   2.2056235      327.09505      4.8750411      1.2145992     -10.095754     -8.8811547      4.5849366      0             -4.2962181      0.578823      -3635.5359      3.7214868      30.254988      22.260838      60.254371      0.8476       
       446   2.2057646      325.73141      4.8547172      1.2143935     -10.095322     -8.8809286      4.6050346      0             -4.275894       0.57882326    -3653.4935      3.7219492      30.292063      22.646924      60.164314      0.8476       
       447   2.2059188      324.36129      4.8342969      1.2141883     -10.094841     -8.8806527      4.6251793      0             -4.2554734      0.57882351    -3671.2932      3.7224104      30.327691      23.03195       60.071976      0.8476       
       448   2.2060632      322.98498      4.8137844      1.2139833     -10.09431      -8.880327       4.6453664      0             -4.2349606      0.57882378    -3688.9336      3.7228702      30.361872      23.415895      59.97736       0.8476       
       449   2.2062033      321.60277      4.7931838      1.2137787     -10.09373      -8.8799514      4.6655916      0             -4.2143598      0.57882404    -3706.4137      3.7233287      30.394603      23.798741      59.880471      0.8476       
       450   2.2063493      320.21493      4.7724994      1.2135744     -10.0931       -8.8795259      4.6858509      0             -4.1936751      0.5788243     -3723.7324      3.7237859      30.425882      24.180469      59.781313      0.8476       
       451   2.2065112      318.82174      4.7517352      1.2133704     -10.092421     -8.8790506      4.7061399      0             -4.1729107      0.57882456    -3740.8886      3.7242417      30.455708      24.561062      59.679892      0.8476       
       452   2.206652       317.42349      4.7308957      1.2131667     -10.091692     -8.8785253      4.7264544      0             -4.1520709      0.57882483    -3757.8811      3.7246962      30.484079      24.9405        59.576212      0.8476       
       453   2.2067943      316.02047      4.709985       1.2129632     -10.090913     -8.87795        4.7467901      0             -4.1311599      0.57882509    -3774.7089      3.7251492      30.510994      25.318766      59.470278      0.8476       
       454   2.2069521      314.61296      4.6890074      1.2127601     -10.090085     -8.8773248      4.7671428      0             -4.1101821      0.57882536    -3791.3709      3.7256009      30.536451      25.69584       59.362095      0.8476       
       455   2.207099       313.20125      4.6679672      1.2125572     -10.089207     -8.8766497      4.7875081      0             -4.0891416      0.57882563    -3807.8659      3.726051       30.560449      26.071704      59.251669      0.8476       
       456   2.2072407      311.78562      4.6468686      1.2123545     -10.088279     -8.8759245      4.8078818      0             -4.0680427      0.5788259     -3824.1929      3.7264998      30.582986      26.446341      59.139004      0.8476       
       457   2.3534217      310.36637      4.625716       1.2121521     -10.087302     -8.8751494      4.8282596      0             -4.0468898      0.57882617    -3840.3509      3.726947       30.604062      26.819732      59.024106      0.8476       
       458   2.3536044      308.94378      4.6045137      1.2119499     -10.086274     -8.8743243      4.8486371      0             -4.0256872      0.57882644    -3856.3388      3.7273928      30.623674      27.191859      58.90698       0.8476       
       459   2.3537642      307.51815      4.583266       1.211748      -10.085197     -8.8734493      4.86901        0             -4.0044393      0.57882671    -3872.1554      3.7278371      30.641823      27.562703      58.787633      0.8476       
       460   2.3539347      306.08976      4.5619772      1.2115462     -10.08407      -8.8725243      4.8893741      0             -3.9831502      0.57882698    -3887.7999      3.7282798      30.658507      27.932247      58.666069      0.8476       
       461   2.3541059      304.65891      4.5406517      1.2113447     -10.082894     -8.8715493      4.9097249      0             -3.9618244      0.57882725    -3903.271       3.728721       30.673725      28.300473      58.542294      0.8476       
       462   2.354259       303.22588      4.5192938      1.2111433     -10.081668     -8.8705244      4.9300581      0             -3.9404663      0.57882752    -3918.5679      3.7291606      30.687476      28.667363      58.416315      0.8476       
       463   2.3544095      301.79098      4.4979079      1.2109421     -10.080392     -8.8694495      4.9503693      0             -3.9190801      0.57882779    -3933.6894      3.7295986      30.699759      29.032899      58.288137      0.8476       
       464   2.3545593      300.35449      4.4764984      1.2107411     -10.079066     -8.8683247      4.9706543      0             -3.8976704      0.57882807    -3948.6346      3.7300351      30.710574      29.397063      58.157767      0.8476       
       465   2.3547156      298.91671      4.4550697      1.2105402     -10.07769      -8.86715        4.9909087      0             -3.8762413      0.57882834    -3963.4024      3.7304699      30.71992       29.759838      58.02521       0.8476       
       466   2.3548669      297.47793      4.433626       1.2103395     -10.076265     -8.8659254      5.011128       0             -3.8547974      0.57882861    -3977.9918      3.7309031      30.727796      30.121205      57.890473      0.8476       
       467   2.3550266      296.03844      4.4121718      1.2101389     -10.07479      -8.864651       5.031308       0             -3.8333429      0.57882889    -3992.4019      3.7313346      30.734202      30.481148      57.753563      0.8476       
       468   2.3551826      294.59855      4.3907115      1.2099384     -10.073265     -8.8633267      5.0514443      0             -3.8118824      0.57882916    -4006.6317      3.7317645      30.739137      30.839649      57.614485      0.8476       
       469   2.3553341      293.15853      4.3692495      1.209738      -10.071691     -8.8619526      5.0715325      0             -3.7904201      0.57882943    -4020.6801      3.7321926      30.742602      31.196689      57.473247      0.8476       
       470   2.3554827      291.7187       4.3477902      1.2095378     -10.070067     -8.8605288      5.0915683      0             -3.7689604      0.57882971    -4034.5463      3.7326191      30.744595      31.552253      57.329855      0.8476       
       471   2.3556314      290.27934      4.3263378      1.2093376     -10.068393     -8.8590552      5.1115474      0             -3.7475079      0.57882998    -4048.2292      3.7330439      30.745116      31.906323      57.184316      0.8476       
       472   2.3557846      288.84074      4.3048969      1.2091375     -10.066669     -8.857532       5.1314653      0             -3.7260667      0.57883025    -4061.7279      3.7334669      30.744166      32.258881      57.036636      0.8476       
       473   2.3559433      287.40321      4.2834719      1.2089375     -10.064897     -8.855959       5.1513177      0             -3.7046413      0.57883053    -4075.0415      3.7338881      30.741744      32.60991       56.886824      0.8476       
       474   2.3560936      285.96703      4.262067       1.2087375     -10.063074     -8.8543365      5.1711003      0             -3.6832362      0.5788308     -4088.1691      3.7343076      30.73785       32.959393      56.734886      0.8476       
       475   2.3562537      284.5325       4.2406867      1.2085376     -10.061202     -8.8526645      5.1908088      0             -3.6618556      0.57883107    -4101.1096      3.7347253      30.732485      33.307313      56.580829      0.8476       
       476   2.3564176      283.09992      4.2193354      1.2083378     -10.059281     -8.8509429      5.2104388      0             -3.6405041      0.57883135    -4113.8623      3.7351411      30.725648      33.653653      56.424661      0.8476       
       477   2.3565692      281.66957      4.1980174      1.2081379     -10.05731      -8.8491719      5.2299861      0             -3.6191858      0.57883162    -4126.4261      3.7355552      30.717339      33.998397      56.266389      0.8476       
       478   2.3567294      280.24175      4.1767372      1.2079381     -10.05529      -8.8473514      5.2494462      0             -3.5979053      0.57883189    -4138.8002      3.7359674      30.707559      34.341527      56.10602       0.8476       
       479   2.3568832      278.81676      4.155499       1.2077383     -10.05322      -8.8454817      5.2688149      0             -3.5766668      0.57883216    -4150.9838      3.7363777      30.696308      34.683026      55.943563      0.8476       
       480   2.3570469      277.39488      4.1343072      1.2075385     -10.051101     -8.8435626      5.2880878      0             -3.5554748      0.57883244    -4162.9759      3.7367862      30.683587      35.022879      55.779024      0.8476       
       481   2.3571966      275.97641      4.1131662      1.2073386     -10.048933     -8.8415944      5.3072608      0             -3.5343335      0.57883271    -4174.7756      3.7371928      30.669396      35.361068      55.612413      0.8476       
       482   2.3573451      274.56163      4.0920804      1.2071388     -10.046716     -8.839577       5.3263296      0             -3.5132474      0.57883298    -4186.3822      3.7375975      30.653735      35.697577      55.443735      0.8476       
       483   2.3574988      273.15085      4.071054       1.2069389     -10.044449     -8.8375105      5.3452898      0             -3.4922207      0.57883325    -4197.7947      3.7380002      30.636606      36.032389      55.273001      0.8476       
       484   2.3576484      271.74434      4.0500913      1.206739      -10.042134     -8.835395       5.3641372      0             -3.4712578      0.57883351    -4209.0124      3.738401       30.618009      36.365489      55.100217      0.8476       
       485   2.3577979      270.3424       4.0291968      1.206539      -10.03977      -8.8332306      5.3828676      0             -3.450363       0.57883378    -4220.0344      3.7387999      30.597944      36.69686       54.925392      0.8476       
       486   2.3579597      268.94532      4.0083746      1.206339      -10.037356     -8.8310173      5.4014768      0             -3.4295405      0.57883405    -4230.8598      3.7391968      30.576413      37.026485      54.748534      0.8476       
       487   2.3581107      267.55338      3.9876291      1.2061388     -10.034894     -8.8287553      5.4199606      0             -3.4087947      0.57883432    -4241.488       3.7395917      30.553416      37.354349      54.569652      0.8476       
       488   2.3582587      266.16687      3.9669645      1.2059386     -10.032383     -8.8264446      5.4383147      0             -3.3881299      0.57883458    -4251.918       3.7399846      30.528954      37.680435      54.388755      0.8476       
       489   2.3584067      264.78608      3.946385       1.2057383     -10.029824     -8.8240853      5.4565351      0             -3.3675502      0.57883485    -4262.1491      3.7403755      30.503029      38.004728      54.205849      0.8476       
       490   2.3585599      263.41129      3.925895       1.2055379     -10.027215     -8.8216775      5.4746176      0             -3.3470599      0.57883511    -4272.1806      3.7407644      30.762373      38.327212      54.020946      0.8476       
       491   2.3587095      262.04277      3.9054987      1.2053374     -10.024559     -8.8192213      5.4925579      0             -3.3266633      0.57883537    -4282.0116      3.7411512      31.027789      38.647872      53.834052      0.8476       
       492   2.3588569      260.68083      3.8852002      1.2051368     -10.021853     -8.8167167      5.5103522      0             -3.3063645      0.57883563    -4291.6414      3.7415359      31.291754      38.96669       53.809132      0.8476       
       493   2.3590132      259.32573      3.8650037      1.204936      -10.0191       -8.8141639      5.5279961      0             -3.2861678      0.57883589    -4301.0693      3.7419186      31.554256      39.283652      54.088142      0.8476       
       494   2.3591819      257.97776      3.8449134      1.2047351     -10.016298     -8.811563       5.5454857      0             -3.2660773      0.57883615    -4310.2945      3.7422992      31.815282      39.598743      54.364376      0.8476       
       495   2.3593346      256.63719      3.8249335      1.2045341     -10.013448     -8.8089141      5.562817       0             -3.2460971      0.57883641    -4319.3163      3.7426777      32.07482       39.911946      54.637819      0.8476       
       496   2.3594837      255.3043       3.8050681      1.2043328     -10.01055      -8.8062172      5.5799858      0             -3.2262314      0.57883667    -4328.1341      3.743054       32.332857      40.223247      54.908457      0.8476       
       497   2.3596379      253.97937      3.7853213      1.2041314     -10.007604     -8.8034726      5.5969882      0             -3.2064844      0.57883692    -4336.747       3.7434282      32.58938       40.53263       55.176277      0.8476       
       498   2.3597869      252.66267      3.7656971      1.2039298     -10.00461      -8.8006802      5.6138203      0             -3.18686        0.57883718    -4345.1545      3.7438003      32.844378      40.840081      55.441265      0.8476       
       499   2.3599436      251.35447      3.7461997      1.2037281     -10.001568     -8.7978403      5.630478       0             -3.1673623      0.57883743    -4353.3558      3.7441702      33.097838      41.145584      55.703408      0.8476       
       500   2.3600928      250.05506      3.7268331      1.2035261     -9.9984789     -8.7949528      5.6469574      0             -3.1479954      0.57883768    -4361.3503      3.7445379      33.349748      41.449123      55.962692      0.8476       
       501   2.3602452      248.76468      3.7076013      1.2033239     -9.995342      -8.7920181      5.6632547      0             -3.1287634      0.57883793    -4369.1373      3.7449035      33.600096      41.750685      56.219103      0.8476       
       502   2.3603944      247.48362      3.6885083      1.2031215     -9.9921575     -8.7890361      5.679366       0             -3.1096701      0.57883818    -4376.7162      3.7452668      33.848869      42.050255      56.472629      0.8476       
       503   2.3605426      246.21213      3.669558       1.2029188     -9.9889258     -8.786007       5.6952874      0             -3.0907196      0.57883842    -4384.0863      3.7456279      34.096056      42.347818      56.723256      0.8476       
       504   2.3606962      244.95049      3.6507544      1.2027159     -9.9856468     -8.7829309      5.7110152      0             -3.0719157      0.57883867    -4391.2471      3.7459868      34.341646      42.643358      56.970972      0.8476       
       505   2.6394556      243.69895      3.6321014      1.2025128     -9.9823207     -8.779808       5.7265455      0             -3.0532625      0.57883891    -4398.198       3.7463434      34.585625      42.936863      57.215764      0.8476       
       506   2.6396312      242.45778      3.6136029      1.2023094     -9.9789477     -8.7766383      5.7418745      0             -3.0347638      0.57883915    -4404.9383      3.7466977      34.827983      43.228317      57.45762       0.8476       
       507   2.6397883      241.22723      3.5952628      1.2021057     -9.9755278     -8.7734221      5.7569987      0             -3.0164234      0.57883939    -4411.4674      3.7470498      35.068707      43.517706      57.696527      0.8476       
       508   2.6399723      240.00756      3.5770848      1.2019017     -9.9720611     -8.7701594      5.7719142      0             -2.9982451      0.57883962    -4417.7848      3.7473996      35.307786      43.805015      57.932473      0.8476       
       509   2.6401316      238.79903      3.5590727      1.2016975     -9.9685479     -8.7668504      5.7866175      0             -2.9802328      0.57883986    -4423.89        3.7477471      35.545209      44.090232      58.165445      0.8476       
       510   2.6402994      237.60188      3.5412304      1.201493      -9.9649881     -8.7634952      5.8011049      0             -2.9623903      0.57884009    -4429.7824      3.7480923      35.780964      44.373342      58.395433      0.8476       
       511   2.6404512      236.41637      3.5235615      1.2012881     -9.9613821     -8.760094       5.8153728      0             -2.9447211      0.57884032    -4435.4614      3.7484351      36.01504       44.65433       58.622423      0.8476       
       512   2.6406074      235.24275      3.5060697      1.2010829     -9.9577298     -8.7566469      5.8294177      0             -2.9272292      0.57884055    -4440.9265      3.7487757      36.247426      44.933184      58.846405      0.8476       
       513   2.6407592      234.08125      3.4887587      1.2008774     -9.9540315     -8.7531541      5.8432361      0             -2.909918       0.57884078    -4446.1773      3.7491138      36.47811       45.209888      59.067366      0.8476       
       514   2.6409223      232.93213      3.4716322      1.2006716     -9.9502873     -8.7496157      5.8568245      0             -2.8927912      0.578841      -4451.2132      3.7494496      36.707081      45.484431      59.285296      0.8476       
       515   2.6410843      231.79563      3.4546937      1.2004654     -9.9464973     -8.7460318      5.8701794      0             -2.8758525      0.57884123    -4456.0338      3.7497831      36.934328      45.756798      59.500184      0.8476       
       516   2.641237       230.67198      3.4379468      1.2002589     -9.9426616     -8.7424027      5.8832974      0             -2.8591053      0.57884145    -4460.6386      3.7501141      37.159841      46.026976      59.712017      0.8476       
       517   2.641389       229.56142      3.421395       1.200052      -9.9387805     -8.7387285      5.8961752      0             -2.8425533      0.57884166    -4465.0271      3.7504427      37.383608      46.294952      59.920786      0.8476       
       518   2.6415396      228.46419      3.4050417      1.1998448     -9.9348541     -8.7350094      5.9088095      0             -2.8261998      0.57884188    -4469.1988      3.7507689      37.605618      46.560712      60.126479      0.8476       
       519   2.6416963      227.38051      3.3888905      1.1996371     -9.9308825     -8.7312454      5.921197       0             -2.8100484      0.57884209    -4473.1535      3.7510927      37.825861      46.824244      60.329087      0.8476       
       520   2.6418684      226.31061      3.3729448      1.1994291     -9.9268659     -8.7274368      5.9333344      0             -2.7941025      0.5788423     -4476.8905      3.7514141      38.044327      47.085534      60.528598      0.8476       
       521   2.6420367      225.25473      3.3572078      1.1992206     -9.9228044     -8.7235838      5.9452185      0             -2.7783653      0.57884251    -4480.4096      3.751733       38.261004      47.34457       60.725002      0.8476       
       522   2.6421961      224.21308      3.341683       1.1990118     -9.9186982     -8.7196864      5.9568462      0             -2.7628403      0.57884272    -4483.7104      3.7520494      38.475883      47.601338      60.918289      0.8476       
       523   2.6423487      223.18588      3.3263736      1.1988025     -9.9145475     -8.715745       5.9682143      0             -2.7475307      0.57884292    -4486.7924      3.7523634      38.688952      47.855827      61.10845       0.8476       
       524   2.6424988      222.17336      3.3112829      1.1985928     -9.9103524     -8.7117596      5.9793198      0             -2.7324398      0.57884312    -4489.6553      3.7526749      38.900202      48.108024      61.295474      0.8476       
       525   2.6426485      221.17572      3.2964141      1.1983827     -9.9061132     -8.7077305      5.9901597      0             -2.7175708      0.57884332    -4492.2987      3.7529839      39.109622      48.357915      61.479351      0.8476       
       526   2.6428148      220.19319      3.2817703      1.1981721     -9.9018299     -8.7036577      6.0007309      0             -2.7029268      0.57884351    -4494.7224      3.7532904      39.317203      48.60549       61.660073      0.8476       
       527   2.6429775      219.22596      3.2673548      1.1979611     -9.8975027     -8.6995416      6.0110306      0             -2.688511       0.5788437     -4496.9259      3.7535944      39.522934      48.850735      61.83763       0.8476       
       528   2.6431312      218.27425      3.2531704      1.1977496     -9.8931319     -8.6953823      6.0210557      0             -2.6743265      0.57884389    -4498.9091      3.7538959      39.726805      49.093639      62.012012      0.8476       
       529   2.6432815      217.33826      3.2392203      1.1975376     -9.8887175     -8.6911799      6.0308036      0             -2.6603763      0.57884408    -4500.6714      3.7541948      39.928807      49.33419       62.183211      0.8476       
       530   2.6434372      216.41819      3.2255075      1.1973252     -9.8842598     -8.6869346      6.0402714      0             -2.6466633      0.57884426    -4502.2128      3.7544912      40.128929      49.572375      62.351217      0.8476       
       531   2.6435881      215.51423      3.212035       1.1971123     -9.879759      -8.6826467      6.0494562      0             -2.6331905      0.57884445    -4503.5329      3.754785       40.327162      49.808184      62.516023      0.8476       
       532   2.643738       214.62659      3.1988055      1.1968989     -9.8752152     -8.6783164      6.0583555      0             -2.6199609      0.57884462    -4504.6315      3.7550762      40.523497      50.041604      62.677619      0.8476       
       533   2.6438998      213.75545      3.185822       1.1966849     -9.8706287     -8.6739438      6.0669666      0             -2.6069772      0.5788448     -4505.5083      3.7553649      40.717924      50.272624      62.835997      0.8476       
       534   2.6440543      212.901        3.1730872      1.1964705     -9.8659996     -8.6695291      6.0752868      0             -2.5942422      0.57884497    -4506.163       3.755651       40.910433      50.501232      62.991148      0.8476       
       535   2.6442031      212.06343      3.160604       1.1962555     -9.861328      -8.6650725      6.0833137      0             -2.5817588      0.57884514    -4506.5956      3.7559345      41.101016      50.727417      63.143066      0.8476       
       536   2.6443525      211.24291      3.148375       1.19604       -9.8566143     -8.6605742      6.0910446      0             -2.5695297      0.57884531    -4506.8057      3.7562154      41.289662      50.951169      63.291742      0.8476       
       537   2.6445125      210.43963      3.1364028      1.195824      -9.8518585     -8.6560345      6.0984771      0             -2.5575574      0.57884547    -4506.7932      3.7564937      41.476364      51.172475      63.437167      0.8476       
       538   2.6446658      209.65376      3.1246902      1.1956074     -9.847061      -8.6514535      6.1056089      0             -2.5458446      0.57884563    -4506.558       3.7567693      41.661111      51.391326      63.579335      0.8476       
       539   2.6448153      208.88548      3.1132396      1.1953903     -9.8422218     -8.6468315      6.1124376      0             -2.5343939      0.57884579    -4506.0998      3.7570423      41.843896      51.607709      63.718238      0.8476       
       540   2.6449801      208.13494      3.1020536      1.1951726     -9.8373412     -8.6421686      6.1189609      0             -2.5232077      0.57884594    -4505.4185      3.7573127      42.024708      51.821615      63.853869      0.8476       
       541   2.6451337      207.40232      3.0911346      1.1949544     -9.8324194     -8.6374651      6.1251765      0             -2.5122885      0.57884609    -4504.5139      3.7575804      42.203539      52.033033      63.986221      0.8476       
       542   2.6452836      206.68778      3.0804851      1.1947355     -9.8274566     -8.6327211      6.1310822      0             -2.5016388      0.57884624    -4503.3861      3.7578455      42.380382      52.241952      64.115286      0.8476       
       543   2.6454437      205.99147      3.0701073      1.1945161     -9.822453      -8.6279369      6.136676       0             -2.4912609      0.57884638    -4502.0348      3.7581079      42.555226      52.448362      64.241059      0.8476       
       544   2.6455999      205.31356      3.0600036      1.1942961     -9.8174088     -8.6231127      6.1419557      0             -2.4811571      0.57884652    -4500.4599      3.7583676      42.728064      52.652253      64.363532      0.8476       
       545   2.6457516      204.65418      3.0501762      1.1940754     -9.8123242     -8.6182488      6.1469192      0             -2.4713296      0.57884666    -4498.6615      3.7586247      42.898887      52.853615      64.482698      0.8476       
       546   2.6459094      204.0135       3.0406274      1.1938542     -9.8071994     -8.6133452      6.1515646      0             -2.4617806      0.57884679    -4496.6394      3.758879       43.067687      53.052437      64.598553      0.8476       
       547   2.6460614      203.39164      3.0313592      1.1936323     -9.8020347     -8.6084024      6.1558901      0             -2.4525123      0.57884693    -4494.3936      3.7591306      43.234456      53.24871       64.711088      0.8476       
       548   2.6462181      202.78876      3.0223739      1.1934099     -9.7968303     -8.6034204      6.1598936      0             -2.4435268      0.57884705    -4491.9241      3.7593796      43.399185      53.442424      64.8203        0.8476       
       549   2.6463702      202.20499      3.0136733      1.1931868     -9.7915863     -8.5983996      6.1635735      0             -2.4348261      0.57884718    -4489.2308      3.7596258      43.561867      53.63357       64.926181      0.8476       
       550   2.6465196      201.64045      3.0052594      1.192963      -9.7863031     -8.5933401      6.1669279      0             -2.4264122      0.5788473     -4486.3138      3.7598693      43.722494      53.822138      65.028726      0.8476       
       551   2.6466784      201.09529      2.9971343      1.1927386     -9.7809807     -8.5882421      6.1699552      0             -2.4182869      0.57884741    -4483.173       3.7601101      43.881058      54.008118      65.12793       0.8476       
       552   2.6468316      200.56963      2.9892998      1.1925135     -9.7756195     -8.583106       6.1726537      0             -2.4104523      0.57884753    -4479.8085      3.7603481      44.037551      54.191501      65.223787      0.8476       
       553   2.943585       200.06358      2.9817576      1.1922878     -9.7702197     -8.5779319      6.1750219      0             -2.40291        0.57884764    -4476.2203      3.7605833      44.191966      54.372279      65.316293      0.8476       
       554   2.943763       199.57727      2.9745096      1.1920614     -9.7647814     -8.57272        6.1770582      0             -2.3956619      0.57884774    -4472.4085      3.7608159      44.344295      54.550442      65.405442      0.8476       
       555   2.9439553      199.1108       2.9675574      1.1918343     -9.759305      -8.5674707      6.1787611      0             -2.3887096      0.57884785    -4468.3731      3.7610456      44.494531      54.725981      65.491229      0.8476       
       556   2.944118       198.6643       2.9609027      1.1916066     -9.7537907     -8.5621841      6.1801293      0             -2.3820548      0.57884795    -4464.1143      3.7612726      44.642666      54.898888      65.57365       0.8476       
       557   2.9442717      198.23786      2.9545471      1.1913781     -9.7482386     -8.5568605      6.1811615      0             -2.375699       0.57884804    -4459.6322      3.7614969      44.788694      55.069154      65.652701      0.8476       
       558   2.9444304      197.83159      2.948492       1.191149      -9.7426491     -8.5515001      6.1818562      0             -2.3696439      0.57884813    -4454.9267      3.7617183      44.932607      55.23677       65.728377      0.8476       
       559   2.9445981      197.44559      2.942739       1.1909191     -9.7370223     -8.5461032      6.1822124      0             -2.3638908      0.57884822    -4449.9982      3.761937       45.074398      55.401728      65.800673      0.8476       
       560   2.9447501      197.07995      2.9372895      1.1906885     -9.7313585     -8.54067        6.1822288      0             -2.3584412      0.57884831    -4444.8467      3.7621528      45.21406       55.56402       65.869587      0.8476       
       561   2.9449093      196.73476      2.9321447      1.1904572     -9.725658      -8.5352007      6.1819044      0             -2.3532964      0.57884839    -4439.4723      3.7623659      45.351587      55.723638      65.935114      0.8476       
       562   2.9450686      196.41011      2.9273061      1.1902252     -9.7199209     -8.5296957      6.181238       0             -2.3484577      0.57884847    -4433.8753      3.7625762      45.486972      55.880573      65.99725       0.8476       
       563   2.9452217      196.10608      2.9227749      1.1899925     -9.7141476     -8.5241551      6.1802288      0             -2.3439263      0.57884854    -4428.0559      3.7627836      45.620207      56.034818      66.055993      0.8476       
       564   2.9453719      195.82275      2.9185521      1.189759      -9.7083382     -8.5185793      6.1788758      0             -2.3397035      0.57884861    -4422.0142      3.7629883      45.751288      56.186366      66.111338      0.8476       
       565   2.9455216      195.5602       2.914639       1.1895247     -9.7024931     -8.5129683      6.177178       0             -2.3357903      0.57884868    -4415.7505      3.7631901      45.880207      56.335208      66.163283      0.8476       
       566   2.9456868      195.31849      2.9110365      1.1892897     -9.6966123     -8.5073226      6.1751348      0             -2.3321878      0.57884874    -4409.2649      3.7633891      46.006958      56.481337      66.211825      0.8476       
       567   2.945839       195.09769      2.9077458      1.1890539     -9.6906963     -8.5016424      6.1727454      0             -2.328897       0.5788488     -4402.5579      3.7635853      46.131535      56.624746      66.256961      0.8476       
       568   2.9459988      194.89787      2.9047676      1.1888174     -9.6847453     -8.4959279      6.1700092      0             -2.3259187      0.57884885    -4395.6295      3.7637786      46.253932      56.765427      66.298689      0.8476       
       569   2.9461644      194.71908      2.9021029      1.1885801     -9.6787595     -8.4901794      6.1669254      0             -2.323254       0.5788489     -4388.48        3.7639691      46.374142      56.903374      66.337005      0.8476       
       570   2.9463162      194.56137      2.8997525      1.188342      -9.6727391     -8.4843971      6.1634936      0             -2.3209035      0.57884895    -4381.1099      3.7641568      46.492161      57.038579      66.371907      0.8476       
       571   2.9464658      194.42481      2.8977171      1.1881031     -9.6666844     -8.4785813      6.1597132      0             -2.3188681      0.57884899    -4373.5193      3.7643416      46.607982      57.171036      66.403395      0.8476       
       572   2.9466153      194.30943      2.8959975      1.1878634     -9.6605958     -8.4727323      6.1555839      0             -2.3171484      0.57884903    -4365.7087      3.7645236      46.721599      57.300738      66.431465      0.8476       
       573   2.9467713      194.21527      2.8945942      1.187623      -9.6544733     -8.4668503      6.1511053      0             -2.3157451      0.57884907    -4357.6782      3.7647027      46.833007      57.427679      66.456115      0.8476       
       574   2.9469327      194.14238      2.8935078      1.1873817     -9.6483173     -8.4609357      6.146277       0             -2.3146587      0.5788491     -4349.4284      3.7648789      46.942202      57.551851      66.477345      0.8476       
       575   2.9470973      194.09078      2.8927388      1.1871396     -9.6421281     -8.4549886      6.1410989      0             -2.3138897      0.57884913    -4340.9595      3.7650523      47.049176      57.67325       66.495152      0.8476       
       576   2.9472597      194.06052      2.8922877      1.1868967     -9.6359059     -8.4490093      6.1355707      0             -2.3134386      0.57884915    -4332.2719      3.7652228      47.153925      57.791868      66.509537      0.8476       
       577   2.9474146      194.0516       2.8921548      1.1866529     -9.629651      -8.4429981      6.1296924      0             -2.3133057      0.57884917    -4323.366       3.7653904      47.256445      57.9077        66.520496      0.8476       
       578   2.9475656      194.06406      2.8923405      1.1864083     -9.6233636     -8.4369553      6.1234639      0             -2.3134913      0.57884919    -4314.2423      3.7655552      47.356729      58.020739      66.52803       0.8476       
       579   2.9477154      194.09791      2.892845       1.1861629     -9.617044      -8.4308811      6.1168852      0             -2.3139958      0.5788492     -4304.9011      3.7657171      47.454773      58.13098       66.532137      0.8476       
       580   2.9478712      194.15317      2.8936686      1.1859167     -9.6106925     -8.4247758      6.1099565      0             -2.3148193      0.57884921    -4295.3429      3.7658761      47.550572      58.238418      66.532818      0.8476       
       581   2.9480337      194.22983      2.8948112      1.1856696     -9.6043093     -8.4186398      6.1026778      0             -2.315962       0.57884922    -4285.5681      3.7660322      47.644122      58.343047      66.530071      0.8476       
       582   2.9481842      194.32792      2.8962731      1.1854216     -9.5978947     -8.4124731      6.0950493      0             -2.3174239      0.57884922    -4275.5772      3.7661854      47.735418      58.444862      66.523897      0.8476       
       583   2.9483338      194.44742      2.8980541      1.1851728     -9.591449      -8.4062763      6.0870713      0             -2.3192049      0.57884921    -4265.3708      3.7663358      47.824455      58.543856      66.514295      0.8476       
       584   2.948489       194.58834      2.9001544      1.1849231     -9.5849725     -8.4000494      6.0787442      0             -2.3213052      0.57884921    -4254.9492      3.7664832      47.91123       58.640027      66.501265      0.8476       
       585   2.948642       194.75066      2.9025737      1.1846725     -9.5784654     -8.3937929      6.0700684      0             -2.3237245      0.5788492     -4244.313       3.7666278      47.995737      58.733367      66.484809      0.8476       
       586   2.9487919      194.93438      2.9053118      1.1844211     -9.571928      -8.3875069      6.0610443      0             -2.3264626      0.57884918    -4233.4627      3.7667695      48.077973      58.823873      66.464925      0.8476       
       587   2.9489569      195.13947      2.9083685      1.1841688     -9.5653605     -8.3811917      6.0516724      0             -2.3295194      0.57884916    -4222.3989      3.7669082      48.157933      58.911541      66.441615      0.8476       
       588   2.9491098      195.36593      2.9117436      1.1839156     -9.5587633     -8.3748477      6.0419533      0             -2.3328945      0.57884914    -4211.1221      3.7670441      48.235615      58.996364      66.414879      0.8476       
       589   2.9492594      195.61371      2.9154366      1.1836615     -9.5521366     -8.3684752      6.0318877      0             -2.3365875      0.57884912    -4199.6329      3.7671771      48.311013      59.07834       66.384718      0.8476       
       590   2.9494082      195.8828       2.9194471      1.1834065     -9.5454808     -8.3620743      6.0214762      0             -2.3405981      0.57884909    -4187.9318      3.7673071      48.384124      59.157463      66.351134      0.8476       
       591   2.9495742      196.17316      2.9237747      1.1831506     -9.538796      -8.3556454      6.0107198      0             -2.3449256      0.57884905    -4176.0195      3.7674343      48.454945      59.233731      66.314128      0.8476       
       592   2.9497268      196.48476      2.9284187      1.1828938     -9.5320826     -8.3491888      5.9996191      0             -2.3495697      0.57884901    -4163.8966      3.7675586      48.523473      59.307138      66.273701      0.8476       
       593   2.9498769      196.81755      2.9333786      1.1826361     -9.5253408     -8.3427047      5.9881751      0             -2.3545296      0.57884897    -4151.5637      3.7676799      48.589702      59.37768       66.229855      0.8476       
       594   2.9500376      197.17148      2.9386537      1.1823774     -9.5185709     -8.3361935      5.9763888      0             -2.3598047      0.57884893    -4139.0214      3.7677984      48.653632      59.445356      66.182591      0.8476       
       595   2.9501948      197.54651      2.9442432      1.1821179     -9.5117733     -8.3296554      5.9642612      0             -2.3653943      0.57884888    -4126.2704      3.7679139      48.715257      59.510159      66.131911      0.8476       
       596   2.950347       197.94259      2.9501463      1.1818574     -9.5049482     -8.3230908      5.9517933      0             -2.3712975      0.57884882    -4113.3114      3.7680265      48.774576      59.572088      66.077818      0.8476       
       597   2.9504973      198.35965      2.9563622      1.1815959     -9.4980958     -8.3164999      5.9389864      0             -2.3775134      0.57884877    -4100.145       3.7681363      48.831586      59.631139      66.020314      0.8476       
       598   2.9506524      198.79764      2.96289        1.1813336     -9.4912165     -8.3098829      5.9258417      0             -2.3840413      0.57884871    -4086.7719      3.7682431      48.886283      59.687309      65.959401      0.8476       
       599   2.9508049      199.25648      2.9697286      1.1810703     -9.4843106     -8.3032403      5.9123603      0             -2.39088        0.57884864    -4073.1929      3.768347       48.938664      59.740595      65.895082      0.8476       
       600   2.9509639      199.73611      2.9768771      1.180806      -9.4773783     -8.2965722      5.8985438      0             -2.3980285      0.57884857    -4059.4087      3.768448       48.988728      59.790994      65.82736       0.8476       
       601   3.2617364      200.23646      2.9843342      1.1805408     -9.4704199     -8.2898791      5.8843934      0             -2.4054857      0.5788485     -4045.42        3.7685461      49.036472      59.838503      65.756237      0.8476       
       602   3.261938       200.75744      2.9920989      1.1802747     -9.4634357     -8.2831611      5.8699106      0             -2.4132505      0.57884842    -4031.2276      3.7686412      49.081893      59.88312       65.681717      0.8476       
       603   3.2621047      201.29897      3.00017        1.1800076     -9.4564261     -8.2764186      5.8550969      0             -2.4213216      0.57884835    -4016.8322      3.7687335      49.124989      59.924842      65.603802      0.8476       
       604   3.2622605      201.86097      3.008546       1.1797395     -9.4493913     -8.2696518      5.839954       0             -2.4296978      0.57884826    -4002.2346      3.7688229      49.165758      59.963667      65.522497      0.8476       
       605   3.2624198      202.44334      3.0172258      1.1794704     -9.4423315     -8.2628611      5.8244835      0             -2.4383776      0.57884817    -3987.4357      3.7689093      49.204198      59.999593      65.437805      0.8476       
       606   3.2625719      203.046        3.0262078      1.1792004     -9.4352472     -8.2560468      5.8086871      0             -2.4473597      0.57884808    -3972.4361      3.7689929      49.240307      60.032617      65.34973       0.8476       
       607   3.2627224      203.66884      3.0354906      1.1789294     -9.4281385     -8.2492091      5.7925665      0             -2.4566426      0.57884799    -3957.2368      3.7690736      49.274083      60.062739      65.258275      0.8476       
       608   3.2628859      204.31176      3.0450727      1.1786574     -9.4210058     -8.2423484      5.7761236      0             -2.4662248      0.57884789    -3941.8386      3.7691513      49.305525      60.089956      65.163446      0.8476       
       609   3.2630544      204.97465      3.0549525      1.1783845     -9.4138494     -8.2354649      5.7593602      0             -2.4761047      0.57884779    -3926.2422      3.7692262      49.334631      60.114266      65.065245      0.8476       
       610   3.2632059      205.65741      3.0651283      1.1781105     -9.4066695     -8.228559       5.7422784      0             -2.4862806      0.57884768    -3910.4487      3.7692981      49.361399      60.135668      64.963677      0.8476       
       611   3.263355       206.35991      3.0755985      1.1778356     -9.3994665     -8.2216309      5.72488        0             -2.4967509      0.57884757    -3894.4588      3.7693672      49.385828      60.154162      64.858748      0.8476       
       612   3.2635036      207.08205      3.0863612      1.1775596     -9.3922406     -8.214681       5.7071672      0             -2.5075138      0.57884746    -3878.2735      3.7694333      49.407917      60.169745      64.750462      0.8476       
       613   3.2636582      207.82369      3.0974147      1.1772827     -9.3849922     -8.2077095      5.6891421      0             -2.5185674      0.57884734    -3861.8936      3.7694966      49.427665      60.182416      64.638823      0.8476       
       614   3.2638082      208.58472      3.1087572      1.1770048     -9.3777216     -8.2007168      5.6708069      0             -2.5299099      0.57884722    -3845.3201      3.769557       49.44507       60.192176      64.523837      0.8476       
       615   3.2639642      209.365        3.1203865      1.1767258     -9.370429      -8.1937031      5.6521637      0             -2.5415394      0.5788471     -3828.5539      3.7696144      49.460133      60.199022      64.405509      0.8476       
       616   3.2641199      210.1644       3.1323008      1.1764459     -9.3631147     -8.1866688      5.633215       0             -2.5534538      0.57884697    -3811.5959      3.769669       49.472851      60.202955      64.283845      0.8476       
       617   3.2642703      210.98279      3.1444981      1.1761649     -9.3557791     -8.1796142      5.613963       0             -2.5656512      0.57884684    -3794.4471      3.7697208      49.483225      60.203973      64.158849      0.8476       
       618   3.2644147      211.82001      3.1569761      1.1758829     -9.3484225     -8.1725395      5.5944101      0             -2.5781294      0.57884671    -3777.1085      3.7697696      49.491253      60.202078      64.030529      0.8476       
       619   3.2645583      212.67593      3.1697328      1.1755999     -9.341045      -8.1654451      5.5745589      0             -2.5908862      0.57884657    -3759.581       3.7698155      49.496936      60.197267      63.898889      0.8476       
       620   3.2647117      213.5504       3.1827659      1.1753159     -9.3336472     -8.1583313      5.5544118      0             -2.6039195      0.57884643    -3741.8656      3.7698586      49.500273      60.189542      63.763936      0.8476       
       621   3.2648588      214.44327      3.1960732      1.1750309     -9.3262292     -8.1511983      5.5339714      0             -2.6172269      0.57884629    -3723.9634      3.7698988      49.501263      60.178903      63.625676      0.8476       
       622   3.2650146      215.35437      3.2096524      1.1747448     -9.3187913     -8.1440465      5.5132403      0             -2.6308062      0.57884614    -3705.8753      3.7699362      49.499907      60.165349      63.484115      0.8476       
       623   3.2651667      216.28355      3.223501       1.1744577     -9.3113339     -8.1368762      5.4922213      0             -2.644655       0.57884599    -3687.6024      3.7699707      49.496205      60.148881      63.33926       0.8476       
       624   3.2653242      217.23066      3.2376166      1.1741695     -9.3038573     -8.1296877      5.470917       0             -2.6587708      0.57884583    -3669.1457      3.7700023      49.490157      60.1295        63.191118      0.8476       
       625   3.2654702      218.19551      3.2519968      1.1738803     -9.2963617     -8.1224813      5.4493302      0             -2.6731511      0.57884568    -3650.5063      3.7700311      49.481763      60.107206      63.039695      0.8476       
       626   3.2656138      219.17794      3.266639       1.1735901     -9.2888474     -8.1152573      5.4274638      0             -2.6877935      0.57884552    -3631.6853      3.770057       49.471023      60.082         62.884999      0.8476       
       627   3.2657641      220.17778      3.2815407      1.1732989     -9.2813149     -8.108016       5.4053207      0             -2.7026953      0.57884535    -3612.6836      3.77008        49.457938      60.053883      62.727036      0.8476       
       628   3.2659174      221.19484      3.2966991      1.1730066     -9.2737643     -8.1007577      5.3829038      0             -2.7178539      0.57884519    -3593.5026      3.7701003      49.442509      60.022856      62.565815      0.8476       
       629   3.2660648      222.22896      3.3121116      1.1727132     -9.266196      -8.0934827      5.3602162      0             -2.7332666      0.57884502    -3574.1431      3.7701176      49.424736      59.988921      62.401341      0.8476       
       630   3.266209       223.27994      3.3277755      1.1724188     -9.2586102     -8.0861914      5.3372608      0             -2.7489306      0.57884484    -3554.6064      3.7701322      49.404619      59.952078      62.233625      0.8476       
       631   3.266359       224.3476       3.3436879      1.1721234     -9.2510073     -8.078884       5.3140408      0             -2.7648432      0.57884467    -3534.8935      3.7701439      49.382161      59.91233       62.062672      0.8476       
       632   3.2665061      225.43174      3.359846       1.1718268     -9.2433877     -8.0715608      5.2905593      0             -2.7810015      0.57884449    -3515.0057      3.7701528      49.357361      59.869677      61.888491      0.8476       
       633   3.2666502      226.53218      3.376247       1.1715293     -9.2357515     -8.0642222      5.2668195      0             -2.7974027      0.5788443     -3494.944       3.7701589      49.330222      59.824122      61.71109       0.8476       
       634   3.2668001      227.64871      3.3928878      1.1712307     -9.2280991     -8.0568684      5.2428247      0             -2.8140437      0.57884412    -3474.7097      3.7701621      49.300744      59.775667      61.530477      0.8476       
       635   3.2669532      228.78114      3.4097656      1.170931      -9.2204308     -8.0494998      5.2185782      0             -2.8309217      0.57884393    -3454.3039      3.7701626      49.268928      59.724313      61.346662      0.8476       
       636   3.2670992      229.92926      3.4268772      1.1706302     -9.212747      -8.0421167      5.1940833      0             -2.8480334      0.57884374    -3433.7277      3.7701603      49.234777      59.670063      61.159652      0.8476       
       637   3.2672435      231.09286      3.4442196      1.1703284     -9.2050478     -8.0347194      5.1693433      0             -2.865376       0.57884354    -3412.9825      3.7701551      49.198292      59.612919      60.969455      0.8476       
       638   3.2673937      232.27173      3.4617896      1.1700256     -9.1973337     -8.0273081      5.1443619      0             -2.8829462      0.57884335    -3392.0693      3.7701472      49.159474      59.552884      60.776082      0.8476       
       639   3.2675399      233.46567      3.4795841      1.1697216     -9.1896048     -8.0198832      5.1191423      0             -2.9007409      0.57884315    -3370.9895      3.7701365      49.118325      59.489961      60.579542      0.8476       
       640   3.2676961      234.67445      3.4975998      1.1694166     -9.1818617     -8.0124451      5.0936882      0             -2.9187569      0.57884294    -3349.7442      3.770123       49.074848      59.424152      60.379842      0.8476       
       641   3.2678468      235.89786      3.5158335      1.1691105     -9.1741044     -8.0049939      5.0680031      0             -2.9369908      0.57884274    -3328.3346      3.7701067      49.029045      59.355459      60.176993      0.8476       
       642   3.2680004      237.13567      3.5342819      1.1688034     -9.1663334     -7.9975301      5.0420906      0             -2.9554394      0.57884253    -3306.7622      3.7700877      48.980916      59.283887      59.971005      0.8476       
       643   3.268144       238.38766      3.5529417      1.1684951     -9.158549      -7.9900538      5.0159545      0             -2.9740994      0.57884232    -3285.028       3.7700659      48.930466      59.209438      59.761886      0.8476       
       644   3.268286       239.6536       3.5718093      1.1681858     -9.1507514     -7.9825656      4.9895983      0             -2.9929672      0.5788421     -3263.1334      3.7700413      48.877696      59.132116      59.549647      0.8476       
       645   3.2684339      240.93326      3.5908815      1.1678754     -9.142941      -7.9750655      4.9630259      0             -3.0120396      0.57884189    -3241.0797      3.770014       48.822609      59.051924      59.334297      0.8476       
       646   3.2685788      242.22641      3.6101546      1.167564      -9.135118      -7.967554       4.936241       0             -3.031313       0.57884167    -3218.8681      3.769984       48.765207      58.968866      59.115848      0.8476       
       647   3.2687216      243.53281      3.6296253      1.1672515     -9.1272828     -7.9600314      4.9092475      0             -3.0507838      0.57884145    -3196.5         3.7699512      48.705493      58.882945      58.894308      0.8476       
       648   3.268865       244.85223      3.6492899      1.1669378     -9.1194357     -7.9524979      4.8820492      0             -3.0704487      0.57884122    -3173.9767      3.7699157      48.64347       58.794166      58.669689      0.8476       
       649   3.5273021      246.18441      3.6691448      1.1666231     -9.111577      -7.9449539      4.8546501      0             -3.0903038      0.578841      -3151.2994      3.7698775      48.579141      58.702532      58.442001      0.8476       
       650   3.5274706      247.52912      3.6891864      1.1663074     -9.103707      -7.9373996      4.827054       0             -3.1103457      0.57884077    -3128.4697      3.7698366      48.512509      58.608047      58.211255      0.8476       
       651   3.5276215      248.88611      3.7094111      1.1659905     -9.095826      -7.9298355      4.7992649      0             -3.1305705      0.57884054    -3105.4887      3.769793       48.443578      58.510717      57.977462      0.8476       
       652   3.5277742      250.25513      3.729815       1.1656726     -9.0879343     -7.9222617      4.771287       0             -3.1509747      0.57884031    -3082.3578      3.7697467      48.37235       58.410545      57.740632      0.8476       
       653   3.5279671      251.63593      3.7503945      1.1653535     -9.0800321     -7.9146786      4.7431242      0             -3.1715545      0.57884007    -3059.0784      3.7696977      48.298829      58.307536      57.500776      0.8476       
       654   3.5281158      253.02825      3.7711458      1.1650334     -9.07212       -7.9070866      4.7147806      0             -3.192306       0.57883983    -3035.652       3.7696461      48.223019      58.201694      57.257907      0.8476       
       655   3.5282599      254.43185      3.7920651      1.1647122     -9.064198      -7.8994858      4.6862603      0             -3.2132255      0.57883959    -3012.0798      3.7695917      48.144922      58.093026      57.012036      0.8476       
       656   3.5284306      255.84645      3.8131484      1.1643899     -9.0562666     -7.8918766      4.6575676      0             -3.234309       0.57883935    -2988.3632      3.7695348      48.064544      57.981535      56.763173      0.8476       
       657   3.5285779      257.27181      3.8343919      1.1640666     -9.048326      -7.8842594      4.6287066      0             -3.2555528      0.57883911    -2964.5037      3.7694751      47.981887      57.867226      56.511332      0.8476       
       658   3.5287203      258.70764      3.8557917      1.1637421     -9.0403765     -7.8766344      4.5996815      0             -3.2769529      0.57883886    -2940.5027      3.7694128      47.896957      57.750106      56.256523      0.8476       
       659   3.5288722      260.1537       3.8773439      1.1634166     -9.0324185     -7.8690019      4.5704966      0             -3.2985053      0.57883861    -2916.3615      3.7693479      47.809756      57.630178      55.998758      0.8476       
       660   3.5290324      261.60972      3.8990444      1.1630899     -9.0244522     -7.8613622      4.5411562      0             -3.320206       0.57883836    -2892.0817      3.7692804      47.720289      57.50745       55.738051      0.8476       
       661   3.5291753      263.07541      3.9208892      1.1627622     -9.0164779     -7.8537157      4.5116647      0             -3.3420511      0.57883811    -2867.6647      3.7692102      47.62856       57.381927      55.474413      0.8476       
       662   3.5293225      264.55052      3.9428743      1.1624334     -9.0084961     -7.8460626      4.4820262      0             -3.3640364      0.57883786    -2843.1118      3.7691375      47.534575      57.253614      55.207856      0.8476       
       663   3.5294723      266.03477      3.9649955      1.1621035     -9.0005068     -7.8384033      4.4522454      0             -3.3861579      0.5788376     -2818.4246      3.7690621      47.438336      57.122517      54.938394      0.8476       
       664   3.5296158      267.52788      3.9872489      1.1617725     -8.9925106     -7.830738       4.4223264      0             -3.4084116      0.57883735    -2793.6045      3.7689842      47.33985       56.988643      54.666039      0.8476       
       665   3.5297575      269.02957      4.0096303      1.1614405     -8.9845076     -7.8230671      4.3922739      0             -3.4307932      0.57883709    -2768.653       3.7689037      47.239121      56.851998      54.390803      0.8476       
       666   3.529907       270.53957      4.0321354      1.1611073     -8.9764981     -7.8153908      4.3620922      0             -3.4532986      0.57883683    -2743.5716      3.7688206      47.136153      56.712588      54.1127        0.8476       
       667   3.5300627      272.0576       4.0547601      1.1607731     -8.9684826     -7.8077095      4.3317859      0             -3.4759236      0.57883657    -2718.3617      3.768735       47.030951      56.570419      53.831743      0.8476       
       668   3.5302066      273.58337      4.0775003      1.1604378     -8.9604611     -7.8000234      4.3013594      0             -3.498664       0.5788363     -2693.0249      3.7686468      46.923522      56.425499      53.547945      0.8476       
       669   3.5303477      275.1166       4.1003516      1.1601014     -8.9524342     -7.7923329      4.2708173      0             -3.5215156      0.57883604    -2667.5627      3.7685561      46.813869      56.277833      53.26132       0.8476       
       670   3.5304929      276.657        4.1233098      1.1597639     -8.9444021     -7.7846382      4.2401641      0             -3.5444741      0.57883577    -2641.9765      3.7684628      46.701999      56.12743       52.971881      0.8476       
       671   3.5306346      278.20429      4.1463707      1.1594253     -8.936365      -7.7769397      4.2094045      0             -3.5675352      0.57883551    -2616.2679      3.7683671      46.587916      55.974296      52.679642      0.8476       
       672   3.5307737      279.75817      4.1695298      1.1590856     -8.9283232     -7.7692376      4.178543       0             -3.5906946      0.57883524    -2590.4384      3.7682688      46.471626      55.818438      52.384616      0.8476       
       673   3.5309353      281.31836      4.192783       1.1587449     -8.9202772     -7.7615323      4.1475843      0             -3.613948       0.57883497    -2564.4895      3.7681681      46.353136      55.659863      52.086817      0.8476       
       674   3.5310839      282.88456      4.2161258      1.1584031     -8.9122271     -7.7538241      4.116533       0             -3.6372911      0.57883469    -2538.4229      3.7680648      46.232449      55.498579      51.786261      0.8476       
       675   3.5312248      284.45649      4.2395538      1.1580602     -8.9041733     -7.7461132      4.0853938      0             -3.6607194      0.57883442    -2512.2399      3.7679591      46.109573      55.334593      51.48296       0.8476       
       676   3.5313631      286.03384      4.2630628      1.1577162     -8.8961161     -7.7383999      4.0541713      0             -3.6842286      0.57883415    -2485.9423      3.767851       45.984514      55.167914      51.176929      0.8476       
       677   3.5315071      287.61633      4.2866482      1.1573711     -8.8880557     -7.7306846      4.0228703      0             -3.7078143      0.57883387    -2459.5314      3.7677404      45.857277      54.998549      50.868182      0.8476       
       678   3.5316496      289.20365      4.3103057      1.157025      -8.8799925     -7.7229675      3.9914954      0             -3.7314721      0.5788336     -2433.009       3.7676273      45.727868      54.826506      50.556735      0.8476       
       679   3.5317888      290.7955       4.3340308      1.1566778     -8.8719268     -7.715249       3.9600515      0             -3.7551975      0.57883332    -2406.3766      3.7675119      45.596295      54.651792      50.242602      0.8476       
       680   3.5319381      292.3916       4.3578191      1.1563295     -8.8638588     -7.7075293      3.9285432      0             -3.7789861      0.57883304    -2379.6357      3.767394       45.462562      54.474417      49.925797      0.8476       
       681   3.5320867      293.99164      4.3816661      1.1559801     -8.8557888     -7.6998087      3.8969754      0             -3.8028333      0.57883276    -2352.788       3.7672737      45.326678      54.294389      49.606336      0.8476       
       682   3.5322276      295.59531      4.4055673      1.1556297     -8.8477172     -7.6920875      3.8653527      0             -3.8267348      0.57883249    -2325.835       3.767151       45.188648      54.111716      49.284234      0.8476       
       683   3.5323666      297.20232      4.4295183      1.1552782     -8.8396443     -7.6843661      3.83368        0             -3.8506861      0.57883221    -2298.7784      3.767026       45.048479      53.926406      48.959506      0.8476       
       684   3.5325047      298.81236      4.4535144      1.1549256     -8.8315703     -7.6766447      3.8019621      0             -3.8746825      0.57883192    -2271.6196      3.7668986      44.906178      53.738469      48.632167      0.8476       
       685   3.532649       300.42514      4.4775513      1.154572      -8.8234955     -7.6689235      3.7702038      0             -3.8987197      0.57883164    -2244.3605      3.7667688      44.761751      53.547913      48.302233      0.8476       
       686   3.5327897      302.04034      4.5016244      1.1542173     -8.8154202     -7.661203       3.73841        0             -3.922793       0.57883136    -2217.0025      3.7666367      44.615207      53.354748      47.969719      0.8476       
       687   3.5329394      303.65766      4.5257291      1.1538615     -8.8073448     -7.6534833      3.7065853      0             -3.946898       0.57883108    -2189.5472      3.7665023      44.466552      53.158982      47.634641      0.8476       
       688   3.5330867      305.2768       4.5498608      1.1535047     -8.7992694     -7.6457648      3.6747347      0             -3.97103        0.5788308     -2161.9964      3.7663656      44.315793      52.960625      47.297015      0.8476       
       689   3.5332386      306.89746      4.5740151      1.1531468     -8.7911945     -7.6380477      3.6428631      0             -3.9951846      0.57883051    -2134.3516      3.7662265      44.162937      52.759686      46.956857      0.8476       
       690   3.533379       308.51932      4.5981874      1.1527878     -8.7831202     -7.6303324      3.6109752      0             -4.0193572      0.57883023    -2106.6144      3.7660852      44.007992      52.556174      46.614183      0.8476       
       691   3.5335178      310.14208      4.6223731      1.1524278     -8.775047      -7.6226191      3.579076       0             -4.0435432      0.57882994    -2078.7866      3.7659416      43.850966      52.3501        46.269009      0.8476       
       692   3.5336626      311.76543      4.6465677      1.1520668     -8.766975      -7.6149082      3.5471702      0             -4.067738       0.57882966    -2050.8697      3.7657958      43.691867      52.141473      45.921352      0.8476       
       693   3.5338035      313.38907      4.6707665      1.1517047     -8.7589045     -7.6071998      3.5152628      0             -4.0919371      0.57882938    -2022.8655      3.7656477      43.530701      51.930303      45.571227      0.8476       
       694   3.5339525      315.01269      4.6949649      1.1513415     -8.7508359     -7.5994944      3.4833585      0             -4.1161358      0.57882909    -1994.7754      3.7654973      43.367477      51.716599      45.218652      0.8476       
       695   3.5340994      316.63598      4.7191585      1.1509773     -8.7427694     -7.5917921      3.4514624      0             -4.1403297      0.57882881    -1966.6013      3.7653448      43.202203      51.500373      44.863642      0.8476       
       696   3.5342411      318.25863      4.7433426      1.150612      -8.7347053     -7.5840933      3.4195792      0             -4.1645141      0.57882852    -1938.3448      3.76519        43.034887      51.281634      44.506216      0.8476       
       697   3.8157232      319.88034      4.7675126      1.1502457     -8.726644      -7.5763982      3.3877139      0             -4.1886844      0.57882824    -1910.0074      3.7650331      42.865537      51.060392      44.146389      0.8476       
       698   3.8159121      321.50079      4.791664       1.1498784     -8.7185856     -7.5687072      3.3558712      0             -4.212836       0.57882795    -1881.591       3.7648739      42.694161      50.836659      43.784179      0.8476       
       699   3.8160793      323.11969      4.8157921      1.14951       -8.7105305     -7.5610204      3.324056       0             -4.2369644      0.57882767    -1853.0972      3.7647126      42.520767      50.610445      43.419602      0.8476       
       700   3.8162292      324.73672      4.8398923      1.1491406     -8.7024789     -7.5533383      3.2922733      0             -4.261065       0.57882738    -1824.5276      3.7645492      42.345365      50.38176       43.052677      0.8476       
       701   3.8163745      326.35157      4.8639602      1.1487702     -8.6944312     -7.545661       3.2605278      0             -4.2851331      0.5788271     -1795.8839      3.7643836      42.167963      50.150615      42.683419      0.8476       
       702   3.8165175      327.96395      4.8879911      1.1483987     -8.6863876     -7.5379888      3.2288245      0             -4.3091643      0.57882681    -1767.1679      3.7642159      41.988569      49.917022      42.311848      0.8476       
       703   3.8166718      329.57353      4.9119805      1.1480262     -8.6783484     -7.5303221      3.1971682      0             -4.3331539      0.57882653    -1738.3812      3.7640461      41.807192      49.680992      41.937979      0.8476       
       704   3.8168184      331.18002      4.9359237      1.1476527     -8.6703138     -7.5226611      3.1655636      0             -4.3570975      0.57882625    -1709.5254      3.7638742      41.623841      49.442535      41.561832      0.8476       
       705   3.8169846      332.78311      4.9598163      1.1472782     -8.6622842     -7.515006       3.1340157      0             -4.3809903      0.57882596    -1680.6023      3.7637002      41.438525      49.201663      41.183423      0.8476       
       706   3.8171363      334.3825       4.9836536      1.1469027     -8.6542599     -7.5073572      3.1025293      0             -4.4048279      0.57882568    -1651.6136      3.7635242      41.251253      48.958388      40.80277       0.8476       
       707   3.8172797      335.97788      5.0074311      1.1465261     -8.6462411     -7.499715       3.0711092      0             -4.4286057      0.5788254     -1622.561       3.7633461      41.062034      48.712721      40.419892      0.8476       
       708   3.8174203      337.56894      5.0311444      1.1461485     -8.638228      -7.4920795      3.0397602      0             -4.4523193      0.57882512    -1593.4461      3.763166       40.870878      48.464674      40.034807      0.8476       
       709   3.8175607      339.15538      5.0547888      1.1457699     -8.6302211     -7.4844511      3.0084872      0             -4.475964       0.57882484    -1564.2708      3.7629839      40.677793      48.214258      39.647532      0.8476       
       710   3.8177098      340.7369       5.0783598      1.1453904     -8.6222204     -7.4768301      2.9772948      0             -4.4995353      0.57882456    -1535.0365      3.7627997      40.482789      47.961486      39.258086      0.8476       
       711   3.8178521      342.31319      5.101853       1.1450098     -8.6142264     -7.4692166      2.9461879      0             -4.5230288      0.57882428    -1505.7452      3.7626136      40.285877      47.70637       38.866488      0.8476       
       712   3.8180034      343.88396      5.1252639      1.1446282     -8.6062393     -7.4616111      2.9151712      0             -4.5464399      0.578824      -1476.3985      3.7624255      40.087065      47.448922      38.472755      0.8476       
       713   3.8181448      345.44891      5.1485879      1.1442456     -8.5982593     -7.4540137      2.8842495      0             -4.5697642      0.57882372    -1446.998       3.7622355      39.886362      47.189153      38.076906      0.8476       
       714   3.8182909      347.00773      5.1718206      1.1438621     -8.5902868     -7.4464247      2.8534275      0             -4.5929972      0.57882345    -1417.5456      3.7620435      39.68378       46.927077      37.67896       0.8476       
       715   3.8184324      348.56013      5.1949576      1.1434775     -8.5823219     -7.4388444      2.82271        0             -4.6161345      0.57882317    -1388.0429      3.7618496      39.479328      46.662706      37.278936      0.8476       
       716   3.8185715      350.1058       5.2179944      1.143092      -8.5743651     -7.4312731      2.7921015      0             -4.6391715      0.5788229     -1358.4916      3.7616538      39.273016      46.396053      36.972032      0.8476       
       717   3.8187172      351.64446      5.2409267      1.1427055     -8.5664164     -7.423711       2.7616069      0             -4.662104       0.57882262    -1328.8935      3.7614561      39.064854      46.12713       36.711306      0.8476       
       718   3.8188582      353.1758       5.2637499      1.142318      -8.5584763     -7.4161583      2.7312308      0             -4.6849275      0.57882235    -1299.2502      3.7612565      38.854851      45.85595       36.44878       0.8476       
       719   3.8190094      354.69954      5.2864597      1.1419295     -8.550545      -7.4086154      2.7009778      0             -4.7076377      0.57882208    -1269.5635      3.7610551      38.64302       45.582526      36.184469      0.8476       
       720   3.81915        356.21538      5.3090519      1.1415401     -8.5426227     -7.4010826      2.6708525      0             -4.73023        0.57882181    -1239.8351      3.7608519      38.429369      45.306872      35.918384      0.8476       
       721   3.8193092      357.72302      5.3315219      1.1411498     -8.5347097     -7.3935599      2.6408596      0             -4.7527003      0.57882154    -1210.0667      3.7606468      38.21391       45.029         35.650538      0.8476       
       722   3.8194513      359.22219      5.3538655      1.1407584     -8.5268063     -7.3860479      2.6110036      0             -4.7750443      0.57882128    -1180.2601      3.7604399      37.996653      44.748923      35.380945      0.8476       
       723   3.8195909      360.71258      5.3760785      1.1403661     -8.5189127     -7.3785466      2.5812891      0             -4.7972575      0.57882101    -1150.4169      3.7602312      37.777608      44.466656      35.109617      0.8476       
       724   3.819736       362.19392      5.3981564      1.1399729     -8.5110292     -7.3710563      2.5517206      0             -4.8193357      0.57882075    -1120.5389      3.7600207      37.556787      44.182211      34.836569      0.8476       
       725   3.8198802      363.66592      5.4200951      1.1395787     -8.5031561     -7.3635774      2.5223027      0             -4.8412747      0.57882048    -1090.6278      3.7598085      37.3342        43.895602      34.561812      0.8476       
       726   3.8200324      365.12829      5.4418904      1.1391836     -8.4952935     -7.35611        2.4930398      0             -4.8630702      0.57882022    -1060.6852      3.7595945      37.109858      43.606843      34.285361      0.8476       
       727   3.8201733      366.58076      5.463538       1.1387875     -8.4874419     -7.3486544      2.4639364      0             -4.884718       0.57881996    -1030.713       3.7593789      36.883772      43.315948      34.007228      0.8476       
       728   3.8203188      368.02303      5.4850338      1.1383905     -8.4796014     -7.3412109      2.4349968      0             -4.906214       0.57881971    -1000.7129      3.7591615      36.655954      43.022931      33.727429      0.8476       
       729   3.8204603      369.45484      5.5063735      1.1379926     -8.4717723     -7.3337797      2.4062256      0             -4.9275541      0.57881945    -970.68649      3.7589424      36.426413      42.727805      33.445975      0.8476       
       730   3.8205999      370.87591      5.5275531      1.1375937     -8.4639548     -7.3263611      2.3776271      0             -4.9487339      0.5788192     -940.63557      3.7587217      36.195163      42.430585      33.162881      0.8476       
       731   3.8207384      372.28595      5.5485685      1.137194      -8.4561493     -7.3189553      2.3492057      0             -4.9697496      0.57881894    -910.56185      3.7584993      35.962214      42.131285      32.87816       0.8476       
       732   3.8208841      373.68471      5.5694156      1.1367933     -8.4483558     -7.3115625      2.3209656      0             -4.9905969      0.57881869    -880.46704      3.7582752      35.727577      41.82992       32.591827      0.8476       
       733   3.8210358      375.0719       5.5900904      1.1363917     -8.4405748     -7.3041831      2.2929112      0             -5.011272       0.57881844    -850.35285      3.7580496      35.491265      41.526503      32.303894      0.8476       
       734   3.8211764      376.44726      5.6105889      1.1359892     -8.4328065     -7.2968173      2.2650466      0             -5.0317707      0.5788182     -820.22099      3.7578223      35.253288      41.22105       32.014377      0.8476       
       735   3.8213218      377.81052      5.630907       1.1355858     -8.4250511     -7.2894652      2.2373762      0             -5.0520891      0.57881795    -790.07318      3.7575935      35.013658      40.913575      31.72329       0.8476       
       736   3.8214641      379.16142      5.6510409      1.1351816     -8.4173088     -7.2821273      2.2099041      0             -5.0722232      0.57881771    -759.91113      3.7573631      34.772388      40.604092      31.430645      0.8476       
       737   3.8216063      380.4997       5.6709866      1.1347764     -8.40958       -7.2748036      2.1826345      0             -5.0921691      0.57881747    -729.73655      3.7571311      34.529489      40.292617      31.136458      0.8476       
       738   3.8217599      381.82508      5.6907402      1.1343703     -8.4018648     -7.2674945      2.1555714      0             -5.111923       0.57881723    -699.55113      3.7568976      34.284972      39.979165      30.840743      0.8476       
       739   3.8219154      383.13733      5.710298       1.1339634     -8.3941635     -7.2602001      2.1287191      0             -5.131481       0.578817      -669.35659      3.7566627      34.038851      39.66375       30.543514      0.8476       
       740   3.8220601      384.43618      5.7296561      1.1335556     -8.3864764     -7.2529208      2.1020815      0             -5.1508393      0.57881676    -639.15463      3.7564262      33.791137      39.346388      30.244786      0.8476       
       741   3.8222006      385.72137      5.7488107      1.1331469     -8.3788036     -7.2456567      2.0756626      0             -5.1699941      0.57881653    -608.94695      3.7561882      33.541843      39.027094      29.944573      0.8476       
       742   3.8223507      386.99266      5.7677581      1.1327374     -8.3711455     -7.2384081      2.0494664      0             -5.1889418      0.5788163     -578.73524      3.7559488      33.29098       38.705884      29.642889      0.8476       
       743   3.8224947      388.2498       5.7864945      1.132327      -8.3635023     -7.2311753      2.0234969      0             -5.2076785      0.57881607    -548.52121      3.7557079      33.038561      38.382772      29.339749      0.8476       
       744   3.822635       389.49254      5.8050164      1.1319157     -8.3558742     -7.2239585      1.9977579      0             -5.2262006      0.57881585    -518.30654      3.7554657      32.784598      38.057774      29.035169      0.8476       
       745   4.0803455      390.72065      5.8233201      1.1315037     -8.3482615     -7.2167578      1.9722533      0             -5.2445045      0.57881563    -488.09293      3.755222       32.529105      37.730907      28.729161      0.8476       
       746   4.0805218      391.93387      5.8414021      1.1310907     -8.3406644     -7.2095736      1.946987       0             -5.2625867      0.57881541    -457.88207      3.754977       32.272093      37.402184      28.421743      0.8476       
       747   4.0806747      393.13197      5.8592587      1.130677      -8.3330831     -7.2024061      1.9219626      0             -5.2804435      0.57881519    -427.67564      3.7547305      32.013575      37.071624      28.112927      0.8476       
       748   4.0808198      394.31473      5.8768865      1.1302624     -8.3255179     -7.1952555      1.897184       0             -5.2980715      0.57881498    -397.47531      3.7544828      31.753564      36.73924       27.804184      0.8476       
       749   4.080996       395.48189      5.894282       1.1298469     -8.317969      -7.188122       1.8726548      0             -5.3154673      0.57881476    -367.28278      3.7542337      31.492073      36.40505       28.019834      0.8476       
       750   4.0811582      396.63325      5.9114418      1.1294307     -8.3104366     -7.1810059      1.8483786      0             -5.3326273      0.57881455    -337.09972      3.7539833      31.229115      36.069069      28.23415       0.8476       
       751   4.0813047      397.76856      5.9283626      1.1290137     -8.302921      -7.1739074      1.8243591      0             -5.3495482      0.57881435    -306.92779      3.7537316      30.964702      35.731314      28.447121      0.8476       
       752   4.081447       398.88761      5.9450409      1.1285958     -8.2954225     -7.1668267      1.8005999      0             -5.3662268      0.57881414    -276.76867      3.7534787      30.698848      35.3918        28.658739      0.8476       
       753   4.0815949      399.99017      5.9614736      1.1281771     -8.2879412     -7.159764       1.7771044      0             -5.3826596      0.57881394    -246.62402      3.7532245      30.431566      35.050545      28.868993      0.8476       
       754   4.0817489      401.07603      5.9776573      1.1277577     -8.2804773     -7.1527196      1.7538761      0             -5.3988435      0.57881375    -216.4955       3.7529691      30.162869      34.707564      29.077874      0.8476       
       755   4.0819009      402.14497      5.9935888      1.1273374     -8.2730312     -7.1456937      1.7309185      0             -5.4147753      0.57881355    -186.38477      3.7527124      29.892771      34.362874      29.285374      0.8476       
       756   4.082045       403.19678      6.0092651      1.1269164     -8.265603      -7.1386865      1.7082348      0             -5.4304517      0.57881336    -156.29348      3.7524546      29.621284      34.016491      29.491482      0.8476       
       757   4.0821946      404.23126      6.024683       1.1264946     -8.2581929     -7.1316983      1.6858285      0             -5.4458698      0.57881317    -126.22329      3.7521956      29.348422      33.668433      29.69619       0.8476       
       758   4.0823387      405.24819      6.0398394      1.1260721     -8.2508013     -7.1247292      1.6637028      0             -5.4610264      0.57881298    -96.17583       3.7519355      29.074198      33.318716      29.899488      0.8476       
       759   4.0824805      406.24738      6.0547314      1.1256487     -8.2434282     -7.1177795      1.6418609      0             -5.4759186      0.5788128     -66.152747      3.7516742      28.798627      32.967357      30.101368      0.8476       
       760   4.0826273      407.22863      6.0693559      1.1252246     -8.236074      -7.1108493      1.620306       0             -5.4905433      0.57881262    -36.155676      3.7514118      28.521721      32.614373      30.301821      0.8476       
       761   4.0827722      408.19174      6.0837102      1.1247998     -8.2287388     -7.103939       1.5990413      0             -5.5048977      0.57881244    -6.1862477      3.7511483      28.243495      32.25978       30.500837      0.8476       
       762   4.0829199      409.13651      6.0977912      1.1243742     -8.2214229     -7.0970487      1.5780698      0             -5.5189789      0.57881227     23.753911      3.7508838      27.963962      31.903597      30.698407      0.8476       
       763   4.0830637      410.06277      6.1115962      1.1239479     -8.2141265     -7.0901786      1.5573945      0             -5.5327841      0.5788121      53.663179      3.7506182      27.683136      31.545839      30.894524      0.8476       
       764   4.0832103      410.97033      6.1251224      1.1235208     -8.2068498     -7.0833289      1.5370185      0             -5.5463105      0.57881193     83.53994       3.7503515      27.401031      31.186525      31.089178      0.8476       
       765   4.0833528      411.85899      6.1383671      1.123093      -8.199593      -7.0764999      1.5169446      0             -5.5595554      0.57881177     113.38258      3.7500839      27.11766       30.825672      31.282361      0.8476       
       766   4.0834946      412.7286       6.1513277      1.1226645     -8.1923564     -7.0696918      1.4971757      0             -5.5725161      0.5788116      143.1895       3.7498152      26.833039      30.463297      31.474064      0.8476       
       767   4.083635       413.57896      6.1640016      1.1222353     -8.1851401     -7.0629048      1.4777146      0             -5.5851901      0.57881145     172.95909      3.7495456      26.54718       30.099417      31.664279      0.8476       
       768   4.083781       414.40991      6.1763861      1.1218054     -8.1779444     -7.056139       1.4585642      0             -5.5975748      0.57881129     202.68976      3.749275       26.260099      29.73405       31.852997      0.8476       
       769   4.0839318      415.22128      6.1884788      1.1213748     -8.1707695     -7.0493947      1.439727       0             -5.6096677      0.57881114     232.37992      3.7490035      25.971809      29.367214      32.040209      0.8476       
       770   4.0840863      416.01291      6.2002773      1.1209435     -8.1636156     -7.0426721      1.4212057      0             -5.6214663      0.57881099     262.02799      3.7487311      25.810315      28.998927      32.225909      0.8476       
       771   4.0842332      416.78463      6.2117791      1.1205115     -8.1564828     -7.0359714      1.4030031      0             -5.6329683      0.57881085     291.63238      3.7484577      25.690511      28.629205      32.410087      0.8476       
       772   4.0843765      417.5363       6.222982       1.1200788     -8.1493716     -7.0292927      1.3851215      0             -5.6441713      0.57881071     321.19152      3.7481836      25.569422      28.258068      32.592736      0.8476       
       773   4.0845181      418.26775      6.2338836      1.1196455     -8.1422819     -7.0226364      1.3675634      0             -5.655073       0.57881057     350.70385      3.7479085      25.447056      27.885533      32.773846      0.8476       
       774   4.0846597      418.97884      6.2444816      1.1192115     -8.135214      -7.0160026      1.3503314      0             -5.6656712      0.57881044     380.16781      3.7476326      25.323419      27.511617      32.953412      0.8476       
       775   4.0848057      419.66941      6.254774       1.1187768     -8.1281682     -7.0093914      1.3334277      0             -5.6759637      0.57881031     409.58184      3.7473559      25.198517      27.13634       33.131423      0.8476       
       776   4.0849553      420.33934      6.2647587      1.1183415     -8.1211447     -7.0028032      1.3168547      0             -5.6859485      0.57881018     438.94439      3.7470785      25.072357      26.759719      33.307874      0.8476       
       777   4.0850965      420.98848      6.2744334      1.1179055     -8.1141435     -6.996238       1.3006146      0             -5.6956234      0.57881006     468.25392      3.7468002      24.944945      26.381772      33.482755      0.8476       
       778   4.0852439      421.61669      6.2837964      1.1174689     -8.1071651     -6.9896961      1.2847097      0             -5.7049864      0.57880994     497.5089       3.7465212      24.816288      26.002518      33.65606       0.8476       
       779   4.0853892      422.22385      6.2928455      1.1170317     -8.1002094     -6.9831777      1.269142       0             -5.7140357      0.57880982     526.7078       3.7462415      24.686392      25.621975      33.82778       0.8476       
       780   4.0855315      422.80984      6.301579       1.1165938     -8.0932768     -6.976683       1.2539137      0             -5.7227693      0.57880971     555.8491       3.7459611      24.555264      25.240161      33.997909      0.8476       
       781   4.0856727      423.37451      6.309995       1.1161554     -8.0863675     -6.9702121      1.2390267      0             -5.7311854      0.5788096      584.93128      3.7456799      24.422911      24.857095      34.166438      0.8476       
       782   4.0858237      423.91777      6.3180918      1.1157163     -8.0794815     -6.9637653      1.224483       0             -5.7392823      0.57880949     613.95282      3.7453981      24.28934       24.472795      34.333361      0.8476       
       783   4.0859783      424.43949      6.3258675      1.1152766     -8.0726193     -6.9573427      1.2102845      0             -5.7470581      0.57880939     642.91224      3.7452511      24.154558      24.087281      34.49867       0.8476       
       784   4.0861215      424.93957      6.3333207      1.1148363     -8.0657808     -6.9509445      1.1964331      0             -5.7545114      0.5788093      671.80804      3.7452842      24.018571      23.700569      34.662358      0.8476       
       785   4.0862646      425.41789      6.3404496      1.1143955     -8.0589664     -6.9445709      1.1829305      0             -5.7616404      0.5788092      700.63873      3.745318       23.881387      23.31268       34.824418      0.8476       
       786   4.086439       425.87436      6.3472528      1.1139541     -8.0521762     -6.9382221      1.1697784      0             -5.7684437      0.57880911     729.40282      3.7453526      23.743012      22.923632      34.984842      0.8476       
       787   4.086585       426.30887      6.3537288      1.1135121     -8.0454104     -6.9318983      1.1569785      0             -5.7749198      0.57880903     758.09886      3.7453879      23.603455      22.533444      35.143625      0.8476       
       788   4.0867279      426.72134      6.3598762      1.1130695     -8.0386691     -6.9255996      1.1445324      0             -5.7810673      0.57880894     786.72536      3.745424       23.462721      22.142135      35.300758      0.8476       
       789   4.086877       427.11166      6.3656937      1.1126264     -8.0319527     -6.9193263      1.1324415      0             -5.7868848      0.57880887     815.28089      3.7454608      23.320819      21.749723      35.456235      0.8476       
       790   4.0870316      427.47976      6.3711799      1.1121827     -8.0252612     -6.9130785      1.1207075      0             -5.7923711      0.57880879     843.76397      3.7454984      23.177756      21.356228      35.61005       0.8476       
       791   4.0871753      427.82556      6.3763336      1.1117385     -8.0185949     -6.9068564      1.1093316      0             -5.7975249      0.57880872     872.17318      3.7455368      23.033539      20.961669      35.762195      0.8476       
       792   4.0873183      428.14897      6.3811537      1.1112937     -8.0119539     -6.9006602      1.0983152      0             -5.8023451      0.57880865     900.50708      3.745576       22.888175      20.566064      35.912665      0.8476       
       793   4.3345286      428.44992      6.3856391      1.1108485     -8.0053385     -6.89449        1.0876595      0             -5.8068305      0.57880859     928.76423      3.7456159      22.741672      20.169433      36.061452      0.8476       
       794   4.3347         428.72834      6.3897887      1.1104027     -7.9987487     -6.8883461      1.0773659      0             -5.8109802      0.57880853     956.94324      3.7456567      22.594039      19.797207      36.208551      0.8476       
       795   4.334851       428.98417      6.3936016      1.1099564     -7.9921849     -6.8822285      1.0674354      0             -5.8147931      0.57880848     985.04267      3.7456984      22.445281      19.487262      36.353955      0.8476       
       796   4.335029       429.21734      6.3970769      1.1095096     -7.9856471     -6.8761375      1.0578691      0             -5.8182684      0.57880842     1013.0611      3.7457408      22.295407      19.176139      36.497657      0.8476       
       797   4.3351828      429.42781      6.4002136      1.1090623     -7.9791355     -6.8700733      1.048668       0             -5.8214053      0.57880838     1040.9972      3.7457841      22.144426      18.863852      36.639652      0.8476       
       798   4.3353279      429.61551      6.4030111      1.1086145     -7.9726504     -6.864036       1.0398332      0             -5.8242028      0.57880833     1068.8496      3.7458283      21.992344      18.550415      36.779933      0.8476       
       799   4.3354726      429.78039      6.4054686      1.1081662     -7.9661919     -6.8580257      1.0313654      0             -5.8266603      0.57880829     1096.6168      3.7458733      21.839169      18.235845      36.918495      0.8476       
       800   4.3356228      429.92243      6.4075854      1.1077175     -7.9597601     -6.8520427      1.0232655      0             -5.8287772      0.57880826     1124.2975      3.7459192      21.684909      17.920156      37.055331      0.8476       
       801   4.3357676      430.04156      6.409361       1.1072683     -7.9533553     -6.8460871      1.0155343      0             -5.8305528      0.57880823     1151.8904      3.745966       21.529573      17.603364      37.190436      0.8476       
       802   4.3359206      430.13776      6.4107948      1.1068186     -7.9469776     -6.840159       1.0081724      0             -5.8319866      0.5788082      1179.394       3.7460137      21.373169      17.285483      37.323804      0.8476       
       803   4.3360784      430.211        6.4118863      1.1063685     -7.9406272     -6.8342587      1.0011806      0             -5.8330782      0.57880818     1206.8072      3.7460624      21.215704      16.966529      37.45543       0.8476       
       804   4.3362292      430.26125      6.4126352      1.105918      -7.9343043     -6.8283863      0.99455927     0             -5.8338271      0.57880816     1234.1284      3.7461119      21.057186      16.646517      37.585307      0.8476       
       805   4.3363751      430.28848      6.4130411      1.105467      -7.928009      -6.822542       0.98830901     0             -5.834233       0.57880814     1261.3564      3.7461623      20.897625      16.325463      37.71343       0.8476       
       806   4.336519       430.29268      6.4131037      1.1050156     -7.9217415     -6.8167259      0.98243025     0             -5.8342956      0.57880813     1288.4898      3.7462137      20.876696      16.003383      37.839795      0.8476       
       807   4.3366682      430.27384      6.4128229      1.1045638     -7.9155019     -6.8109381      0.97692335     0             -5.8340148      0.57880812     1315.5275      3.7462661      21.029391      15.680291      37.964394      0.8476       
       808   4.3368144      430.23194      6.4121984      1.1041116     -7.9092905     -6.8051789      0.97178861     0             -5.8333903      0.57880812     1342.468       3.7463194      21.181039      15.356204      38.087224      0.8476       
       809   4.33697        430.16698      6.4112302      1.1036589     -7.9031073     -6.7994484      0.96702627     0             -5.8324221      0.57880812     1369.31        3.7463737      21.331633      15.031136      38.208279      0.8476       
       810   4.337115       430.07895      6.4099183      1.1032059     -7.8969527     -6.7937467      0.96263651     0             -5.8311102      0.57880812     1396.0524      3.7464289      21.481164      14.705105      38.327554      0.8476       
       811   4.3372634      429.96787      6.4082628      1.1027525     -7.8908266     -6.7880741      0.95861942     0             -5.8294546      0.57880813     1422.6937      3.7464851      21.629626      14.378124      38.445044      0.8476       
       812   4.3374077      429.83374      6.4062636      1.1022988     -7.8847293     -6.7824305      0.95497505     0             -5.8274555      0.57880815     1449.2329      3.7465424      21.777011      14.050212      38.560744      0.8476       
       813   4.3375509      429.67656      6.4039211      1.1018446     -7.8786609     -6.7768163      0.95170338     0             -5.8251129      0.57880816     1475.6685      3.7466006      21.923312      13.721382      38.67465       0.8476       
       814   4.3376992      429.49636      6.4012354      1.1013902     -7.8726217     -6.7712315      0.94880431     0             -5.8224272      0.57880818     1501.9994      3.7466599      22.06852       13.438863      38.786756      0.8476       
       815   4.3378435      429.29316      6.3982068      1.1009353     -7.8666116     -6.7656763      0.94627769     0             -5.8193986      0.57880821     1528.2243      3.7467202      22.21263       13.519483      38.897058      0.8476       
       816   4.3379974      429.06698      6.3948358      1.1004801     -7.860631      -6.7601509      0.9441233      0             -5.8160276      0.57880824     1554.342       3.7467815      22.355634      13.599364      39.005551      0.8476       
       817   4.3381436      428.81785      6.3911228      1.1000246     -7.85468       -6.7546553      0.94234085     0             -5.8123145      0.57880827     1580.3513      3.7468439      22.497525      13.678502      39.112231      0.8476       
       818   4.338296       428.5458       6.3870681      1.0995688     -7.8487586     -6.7491898      0.94092999     0             -5.8082598      0.5788083      1606.2509      3.7469073      22.638295      13.756892      39.217094      0.8476       
       819   4.3384517      428.25087      6.3826725      1.0991126     -7.8428671     -6.7437545      0.9398903      0             -5.8038642      0.57880835     1632.0398      3.7469718      22.777938      13.834532      39.320135      0.8476       
       820   4.3385956      427.93311      6.3779366      1.0986562     -7.8370056     -6.7383495      0.93922129     0             -5.7991282      0.57880839     1657.7166      3.7470374      22.916447      13.911417      39.421349      0.8476       
       821   4.3387364      427.59255      6.3728609      1.0981994     -7.8311743     -6.7329749      0.93892243     0             -5.7940525      0.57880844     1683.2803      3.7471041      23.053814      13.987545      39.520734      0.8476       
       822   4.3388836      427.22926      6.3674463      1.0977424     -7.8253733     -6.7276309      0.9389931      0             -5.7886378      0.57880849     1708.7296      3.7471718      23.190033      14.062912      39.618284      0.8476       
       823   4.3390383      426.84328      6.3616937      1.097285      -7.8196027     -6.7223177      0.93943261     0             -5.7828851      0.57880855     1734.0634      3.7472407      23.325097      14.137513      39.713997      0.8476       
       824   4.3391808      426.43467      6.3556037      1.0968274     -7.8138628     -6.7170354      0.94024023     0             -5.7767951      0.57880861     1759.2806      3.7473107      23.458998      14.211346      39.807867      0.8476       
       825   4.3393299      426.0035       6.3491775      1.0963695     -7.8081536     -6.711784       0.94141515     0             -5.7703689      0.57880867     1784.3799      3.7473818      23.591732      14.284408      39.899891      0.8476       
       826   4.3394735      425.54983      6.3424161      1.0959114     -7.8024752     -6.7065638      0.9429565      0             -5.7636073      0.57880874     1809.3603      3.747454       23.72329       14.356694      39.990066      0.8476       
       827   4.3396153      425.07374      6.3353204      1.095453      -7.7968279     -6.7013749      0.94486334     0             -5.7565116      0.57880881     1834.2207      3.7475274      23.853666      14.428201      40.078388      0.8476       
       828   4.3397573      424.5753       6.3278916      1.0949944     -7.7912118     -6.6962174      0.94713467     0             -5.7490827      0.57880889     1858.96        3.7476019      23.982854      14.498927      40.164853      0.8476       
       829   4.3399132      424.05459      6.320131       1.0945356     -7.785627      -6.6910914      0.94976944     0             -5.741322       0.57880897     1883.577       3.7476776      24.110847      14.568868      40.249458      0.8476       
       830   4.3400597      423.5117       6.3120397      1.0940765     -7.7800736     -6.6859971      0.9527665      0             -5.7332306      0.57880905     1908.0707      3.7477544      24.237639      14.638021      40.3322        0.8476       
       831   4.3402019      422.94671      6.3036191      1.0936172     -7.7745518     -6.6809346      0.95612467     0             -5.7248099      0.57880914     1932.4399      3.7478324      24.363223      14.706381      40.413075      0.8476       
       832   4.3403485      422.35972      6.2948706      1.0931577     -7.7690617     -6.675904       0.9598427      0             -5.7160613      0.57880923     1956.6837      3.7479116      24.487593      14.773948      40.49208       0.8476       
       833   4.3404919      421.75083      6.2857955      1.092698      -7.7636035     -6.6709055      0.96391927     0             -5.7069862      0.57880933     1980.801       3.747992       24.610742      14.840716      40.569212      0.8476       
       834   4.3406329      421.12013      6.2763956      1.0922381     -7.7581773     -6.6659391      0.96835299     0             -5.6975861      0.57880943     2004.7907      3.7480736      24.732666      14.906684      40.644469      0.8476       
       835   4.3407875      420.46773      6.2666722      1.0917781     -7.7527831     -6.6610051      0.97314244     0             -5.6878626      0.57880953     2028.6517      3.7481565      24.853356      14.971848      40.717846      0.8476       
       836   4.3409432      419.79374      6.256627       1.0913179     -7.7474213     -6.6561034      0.9782861      0             -5.6778173      0.57880964     2052.3832      3.7482405      24.972808      15.036205      40.789343      0.8476       
       837   4.3410879      419.09827      6.2462617      1.0908575     -7.7420918     -6.6512343      0.9837824      0             -5.6674519      0.57880975     2075.9839      3.7483258      25.091015      15.099753      40.858955      0.8476       
       838   4.3412288      418.38144      6.235578       1.0903969     -7.7367948     -6.6463979      0.98962972     0             -5.6567682      0.57880986     2099.453       3.7484123      25.207971      15.162488      40.92668       0.8476       
       839   4.3413697      417.64337      6.2245778      1.0899362     -7.7315305     -6.6415942      0.99582638     0             -5.6457678      0.57880998     2122.7895      3.7485         25.323671      15.224407      40.992515      0.8476       
       840   4.3415267      416.88419      6.2132629      1.0894754     -7.7262989     -6.6368234      1.0023706      0             -5.6344528      0.5788101      2145.9923      3.748589       25.438108      15.285508      41.056459      0.8476       
       841   4.590007       416.10402      6.2016353      1.0890145     -7.7211002     -6.6320857      1.0092606      0             -5.6228251      0.57881023     2169.0605      3.7486793      25.551277      15.345788      41.118508      0.8476       
       842   4.5901631      415.30301      6.1896969      1.0885534     -7.7159345     -6.6273811      1.0164945      0             -5.6108865      0.57881036     2191.9931      3.7487708      25.663172      15.405245      41.178661      0.8476       
       843   4.5903147      414.48128      6.1774498      1.0880922     -7.7108019     -6.6227097      1.0240704      0             -5.5986393      0.57881049     2214.7892      3.7488636      25.773787      15.463875      41.236916      0.8476       
       844   4.5904547      413.63897      6.164896       1.087631      -7.7057026     -6.6180716      1.0319863      0             -5.5860854      0.57881063     2237.4478      3.7489578      25.883117      15.521675      41.293269      0.8476       
       845   4.5905901      412.77624      6.1520378      1.0871696     -7.7006367     -6.6134671      1.04024        0             -5.573227       0.57881077     2259.968       3.7490532      25.991156      15.578644      41.34772       0.8476       
       846   4.5907249      411.89322      6.1388773      1.0867081     -7.6956042     -6.6088961      1.0488297      0             -5.5600664      0.57881091     2282.3489      3.7491499      26.097899      15.634779      41.400266      0.8476       
       847   4.5908636      410.99008      6.1254169      1.0862466     -7.6906054     -6.6043587      1.0577529      0             -5.5466058      0.57881106     2304.5895      3.7492479      26.20334       15.690077      41.450905      0.8476       
       848   4.5910116      410.06697      6.1116588      1.085785      -7.6856402     -6.5998552      1.0670076      0             -5.5328476      0.57881121     2326.689       3.7493472      26.307474      15.744536      41.499637      0.8476       
       849   4.5911459      409.12405      6.0976054      1.0853234     -7.680709      -6.5953856      1.0765915      0             -5.5187941      0.57881136     2348.6464      3.7494479      26.410296      15.798154      41.546458      0.8476       
       850   4.5912801      408.16148      6.0832593      1.0848617     -7.6758116     -6.5909499      1.0865022      0             -5.5044478      0.57881152     2370.461       3.7495499      26.5118        15.850927      41.591368      0.8476       
       851   4.5914321      407.17944      6.0686228      1.0844        -7.6709484     -6.5865484      1.0967373      0             -5.4898111      0.57881168     2392.1318      3.7496533      26.611981      15.902854      41.634365      0.8476       
       852   4.5915673      406.17808      6.0536986      1.0839382     -7.6661193     -6.5821811      1.1072944      0             -5.4748867      0.57881184     2413.6579      3.749758       26.710835      15.953932      41.675448      0.8476       
       853   4.5916999      405.1576       6.0384892      1.0834764     -7.6613245     -6.5778481      1.1181709      0             -5.4596772      0.57881201     2435.0385      3.749864       26.808355      16.00416       41.714616      0.8476       
       854   4.5918402      404.11816      6.0229973      1.0830146     -7.6565641     -6.5735495      1.1293644      0             -5.4441851      0.57881218     2456.2729      3.7499715      26.904538      16.053534      41.751867      0.8476       
       855   4.5919868      403.05994      6.0072257      1.0825528     -7.6518382     -6.5692854      1.1408721      0             -5.4284133      0.57881236     2477.36        3.7500803      26.999378      16.102053      41.7872        0.8476       
       856   4.5921245      401.98314      5.991177       1.082091      -7.6471469     -6.5650559      1.1526914      0             -5.4123644      0.57881253     2498.2992      3.7501905      27.092871      16.149715      41.820614      0.8476       
       857   4.5922604      400.88795      5.9748541      1.0816292     -7.6424904     -6.5608611      1.1648197      0             -5.3960414      0.57881271     2519.0897      3.750302       27.185011      16.196517      41.852108      0.8476       
       858   4.5924005      399.77455      5.9582599      1.0811675     -7.6378686     -6.5567011      1.1772541      0             -5.379447       0.5788129      2539.7306      3.750415       27.275794      16.242458      41.881682      0.8476       
       859   4.5925363      398.64314      5.9413974      1.0807058     -7.6332818     -6.552576       1.1899918      0             -5.3625843      0.57881309     2560.2211      3.7505294      27.365215      16.287535      41.909335      0.8476       
       860   4.5926717      397.49392      5.9242694      1.0802441     -7.62873       -6.5484859      1.2030298      0             -5.3454561      0.57881328     2580.5605      3.7506452      27.45327       16.331747      41.935066      0.8476       
       861   4.5928114      396.3271       5.906879       1.0797825     -7.6242133     -6.5444309      1.2163654      0             -5.3280655      0.57881347     2600.748       3.7507624      27.539954      16.375092      41.958874      0.8476       
       862   4.5929558      395.14287      5.8892292      1.0793209     -7.6197319     -6.540411       1.2299955      0             -5.3104156      0.57881367     2620.7829      3.750881       27.625262      16.417567      41.980759      0.8476       
       863   4.593093       393.94146      5.8713233      1.0788594     -7.6152858     -6.5364264      1.243917       0             -5.2925094      0.57881386     2640.6644      3.7510011      27.709191      16.459171      42.000721      0.8476       
       864   4.5932269      392.72307      5.8531643      1.0783979     -7.6108751     -6.5324772      1.2581269      0             -5.2743503      0.57881407     2660.3918      3.7511226      27.791737      16.499903      42.01876       0.8476       
       865   4.5933706      391.48792      5.8347556      1.0779366     -7.6065        -6.5285634      1.2726221      0             -5.2559413      0.57881427     2679.9644      3.7512456      27.872893      16.539761      42.034875      0.8476       
       866   4.5935099      390.23622      5.8161003      1.0774754     -7.6021604     -6.524685       1.2873993      0             -5.2372858      0.57881448     2699.3815      3.75137        27.952658      16.578742      42.049066      0.8476       
       867   4.5936447      388.96821      5.7972017      1.0770142     -7.5978566     -6.5208424      1.3024553      0             -5.218387       0.57881469     2718.6423      3.7514959      28.031025      16.616845      42.061333      0.8476       
       868   4.5937901      387.6841       5.7780633      1.0765532     -7.5935885     -6.5170353      1.317787       0             -5.1992484      0.57881491     2737.7461      3.7516232      28.107993      16.654069      42.071676      0.8476       
       869   4.5939394      386.38412      5.7586884      1.0760923     -7.5893564     -6.5132641      1.3333909      0             -5.1798733      0.57881512     2756.6924      3.7517521      28.183555      16.690413      42.080096      0.8476       
       870   4.5941727      385.06851      5.7390805      1.0756315     -7.5851602     -6.5095287      1.3492636      0             -5.1602651      0.57881534     2775.4804      3.7518824      28.257709      16.725873      42.086592      0.8476       
       871   4.594323       383.7375       5.719243       1.0751708     -7.5810001     -6.5058293      1.3654018      0             -5.1404275      0.57881556     2794.1095      3.7520141      28.330451      16.76045       42.091166      0.8476       
       872   4.5944777      382.39133      5.6991796      1.0747103     -7.5768762     -6.5021658      1.381802       0             -5.1203638      0.57881579     2812.579       3.7521474      28.401777      16.794142      42.093817      0.8476       
       873   4.5946239      381.03023      5.6788937      1.07425       -7.5727885     -6.4985385      1.3984608      0             -5.1000777      0.57881602     2830.8883      3.7522822      28.471683      16.826947      42.094546      0.8476       
       874   4.5947677      379.65446      5.6583891      1.0737898     -7.5687371     -6.4949473      1.4153744      0             -5.0795729      0.57881625     2849.0368      3.7524185      28.540165      16.858865      42.093353      0.8476       
       875   4.5949254      378.26425      5.6376694      1.0733298     -7.5647222     -6.4913923      1.4325395      0             -5.0588529      0.57881648     2867.0238      3.7525563      28.607221      16.889893      42.09024       0.8476       
       876   4.5950789      376.85985      5.6167382      1.07287       -7.5607437     -6.4878737      1.4499522      0             -5.0379215      0.57881671     2884.8488      3.7526956      28.672845      16.920031      42.085207      0.8476       
       877   4.5952242      375.44152      5.5955993      1.0724104     -7.5568019     -6.4843915      1.4676091      0             -5.0167824      0.57881695     2902.5111      3.7528365      28.737036      16.949277      42.078255      0.8476       
       878   4.5953675      374.00952      5.5742566      1.071951      -7.5528967     -6.4809457      1.4855063      0             -4.9954394      0.57881719     2920.0102      3.7529789      28.79979       16.97763       42.069385      0.8476       
       879   4.5955166      372.56408      5.5527138      1.0714918     -7.5490282     -6.4775365      1.5036401      0             -4.9738964      0.57881743     2937.3455      3.7531228      28.861103      17.00509       42.058598      0.8476       
       880   4.5956622      371.10549      5.5309748      1.0710328     -7.5451966     -6.4741638      1.5220067      0             -4.9521571      0.57881768     2954.5165      3.7532683      28.920972      17.031654      42.045896      0.8476       
       881   4.5958069      369.63398      5.5090435      1.070574      -7.5414018     -6.4708278      1.5406023      0             -4.9302256      0.57881792     2971.5225      3.7534153      28.979394      17.057323      42.031279      0.8476       
       882   4.5959625      368.14984      5.4869238      1.0701155     -7.5376441     -6.4675286      1.559423       0             -4.9081056      0.57881817     2988.3631      3.7535639      29.036366      17.082095      42.014748      0.8476       
       883   4.5961169      366.65333      5.4646197      1.0696572     -7.5339234     -6.4642662      1.5784649      0             -4.8858013      0.57881842     3005.0376      3.753714       29.091885      17.217941      42.275869      0.8476       
       884   4.5962755      365.14472      5.4421352      1.0691992     -7.5302398     -6.4610406      1.5977241      0             -4.8633165      0.57881868     3021.5457      3.7538657      29.145947      17.623671      42.716186      0.8476       
       885   4.5964222      363.62427      5.4194743      1.0687414     -7.5265934     -6.457852       1.6171966      0             -4.8406554      0.57881893     3037.8868      3.754019       29.198551      18.028563      43.154882      0.8476       
       886   4.5965682      362.09226      5.3966412      1.0682839     -7.5229843     -6.4547004      1.6368784      0             -4.817822       0.57881919     3054.0603      3.7541738      29.249694      18.432598      43.591937      0.8476       
       887   4.5967188      360.54896      5.3736399      1.0678267     -7.5194125     -6.4515858      1.6567654      0             -4.7948204      0.57881945     3070.0658      3.7543303      29.299371      18.835755      44.027333      0.8476       
       888   4.5968667      358.99467      5.3504745      1.0673698     -7.5158781     -6.4485083      1.6768535      0             -4.7716548      0.57881971     3085.9028      3.7544883      29.347582      19.238014      44.461049      0.8476       
       889   4.8361114      357.42964      5.3271493      1.0669131     -7.5123812     -6.4454681      1.6971387      0             -4.7483293      0.57881998     3101.5709      3.7546479      29.394323      19.639356      44.893067      0.8476       
       890   4.8362933      355.85417      5.3036684      1.0664568     -7.5089218     -6.442465       1.7176169      0             -4.7248482      0.57882024     3117.0695      3.7548092      29.439592      20.03976       45.323367      0.8476       
       891   4.8364515      354.26854      5.2800361      1.0660008     -7.5055001     -6.4394993      1.7382837      0             -4.7012155      0.57882051     3132.3983      3.754972       29.483386      20.439208      45.75193       0.8476       
       892   4.8366051      352.67303      5.2562565      1.0655451     -7.502116      -6.4365709      1.7591351      0             -4.6774357      0.57882078     3147.5567      3.7551364      29.525703      20.837679      46.178737      0.8476       
       893   4.8367541      351.06793      5.2323341      1.0650898     -7.4987697     -6.4336799      1.7801668      0             -4.6535131      0.57882105     3162.5444      3.7553025      29.56654       21.235154      46.60377       0.8476       
       894   4.8369194      349.45354      5.2082731      1.0646348     -7.4954611     -6.4308264      1.8013746      0             -4.6294518      0.57882132     3177.3609      3.7554702      29.605896      21.631612      47.02701       0.8476       
       895   4.8370738      347.83014      5.1840778      1.0641801     -7.4921904     -6.4280103      1.8227541      0             -4.6052562      0.57882159     3192.0059      3.7556395      29.643769      22.027036      47.448437      0.8476       
       896   4.8372217      346.19802      5.1597527      1.0637258     -7.4889577     -6.4252319      1.844301       0             -4.5809308      0.57882187     3206.4789      3.7558104      29.680155      22.421404      47.868033      0.8476       
       897   4.8373759      344.55749      5.1353021      1.0632719     -7.4857629     -6.422491       1.8660111      0             -4.5564799      0.57882214     3220.7796      3.755983       29.715054      22.814699      48.285779      0.8476       
       898   4.8375256      342.90883      5.1107304      1.0628183     -7.4826062     -6.4197878      1.8878799      0             -4.5319079      0.57882242     3234.9074      3.7561572      29.748463      23.206899      48.701658      0.8476       
       899   4.8376721      341.25234      5.086042       1.0623652     -7.4794875     -6.4171223      1.909903       0             -4.5072193      0.5788227      3248.8622      3.756333       29.78038       23.597986      49.115651      0.8476       
       900   4.8378307      339.58833      5.0612415      1.0619124     -7.476407      -6.4144946      1.9320761      0             -4.4824185      0.57882298     3262.6435      3.7565105      29.810804      23.987941      49.527739      0.8476       
       901   4.8379954      337.91709      5.0363333      1.06146       -7.4733647     -6.4119047      1.9543946      0             -4.45751        0.57882326     3276.251       3.7566897      29.839733      24.376744      49.937904      0.8476       
       902   4.8381477      336.23893      5.0113219      1.0610081     -7.4703607     -6.4093526      1.9768542      0             -4.4324984      0.57882355     3289.6843      3.7568705      29.867165      24.764376      50.346128      0.8476       
       903   4.8382939      334.55415      4.9862118      1.0605565     -7.4673949     -6.4068384      1.9994504      0             -4.407388       0.57882383     3302.9431      3.757053       29.893098      25.150818      50.752394      0.8476       
       904   4.8384408      332.86305      4.9610076      1.0601054     -7.4644676     -6.4043621      2.0221786      0             -4.3821835      0.57882412     3316.0271      3.7572371      29.917531      25.536051      51.156683      0.8476       
       905   4.8385972      331.16594      4.9357138      1.0596547     -7.4615786     -6.4019239      2.0450344      0             -4.3568894      0.5788244      3328.936       3.7574229      29.940464      25.920055      51.558977      0.8476       
       906   4.8387353      329.46313      4.9103351      1.0592045     -7.4587281     -6.3995236      2.0680132      0             -4.3315104      0.57882469     3341.6694      3.7576104      29.961893      26.302813      51.959259      0.8476       
       907   4.83887        327.75493      4.8848759      1.0587547     -7.4559161     -6.3971614      2.0911105      0             -4.3060509      0.57882498     3354.227       3.7577996      29.981818      26.684304      52.357512      0.8476       
       908   4.839022       326.04163      4.8593409      1.0583054     -7.4531426     -6.3948372      2.1143216      0             -4.2805156      0.57882527     3366.6087      3.7579904      30.000239      27.06451       52.753717      0.8476       
       909   4.8391596      324.32357      4.8337347      1.0578566     -7.4504078     -6.3925512      2.137642       0             -4.2549092      0.57882556     3378.8141      3.758183       30.017152      27.443412      53.147857      0.8476       
       910   4.8392945      322.60104      4.808062       1.0574082     -7.4477116     -6.3903034      2.1610672      0             -4.2292362      0.57882585     3390.8429      3.7583772      30.032559      27.820992      53.539915      0.8476       
       911   4.839429       320.87435      4.7823274      1.0569603     -7.445054      -6.3880937      2.1845924      0             -4.2035013      0.57882614     3402.6949      3.7585731      30.046457      28.19723       53.929875      0.8476       
       912   4.8395728      319.14383      4.7565356      1.0565129     -7.4424352     -6.3859223      2.2082131      0             -4.1777092      0.57882644     3414.3698      3.7587707      30.058845      28.572109      54.317718      0.8476       
       913   4.8397103      317.40977      4.7306912      1.0560661     -7.4398552     -6.3837891      2.2319246      0             -4.1518645      0.57882673     3425.8675      3.7589701      30.069724      28.945609      54.703427      0.8476       
       914   4.8398452      315.67251      4.704799       1.0556197     -7.437314      -6.3816943      2.2557223      0             -4.1259719      0.57882702     3437.1876      3.7591711      30.079091      29.317712      55.086987      0.8476       
       915   4.8399936      313.93235      4.6788635      1.0551738     -7.4348116     -6.3796377      2.2796015      0             -4.1000362      0.57882732     3448.3299      3.7593738      30.086947      29.688399      55.468379      0.8476       
       916   4.840143       312.18961      4.6528896      1.0547285     -7.4323481     -6.3776195      2.3035576      0             -4.074062       0.57882761     3459.2943      3.7595782      30.093291      30.057653      55.847588      0.8476       
       917   4.8402792      310.4446       4.6268819      1.0542838     -7.4299235     -6.3756397      2.3275858      0             -4.048054       0.57882791     3470.0805      3.7597844      30.098121      30.425454      56.224597      0.8476       
       918   4.8404142      308.69764      4.6008451      1.0538395     -7.4275378     -6.3736983      2.3516814      0             -4.0220169      0.5788282      3480.6884      3.7599923      30.101438      30.791785      56.599389      0.8476       
       919   4.8405546      306.94904      4.5747839      1.0533958     -7.4251912     -6.3717953      2.3758399      0             -3.9959554      0.5788285      3491.1177      3.7602019      30.103242      31.156628      56.971948      0.8476       
       920   4.8406909      305.19913      4.5487032      1.0529527     -7.4228835     -6.3699308      2.4000564      0             -3.9698744      0.57882879     3501.3684      3.7604132      30.103531      31.519963      57.342258      0.8476       
       921   4.8408251      303.44822      4.5226075      1.0525102     -7.4206149     -6.3681047      2.4243263      0             -3.9437784      0.57882909     3511.4401      3.7606262      30.102306      31.881774      57.710303      0.8476       
       922   4.8409688      301.69663      4.4965017      1.0520682     -7.4183854     -6.3663172      2.4486449      0             -3.9176723      0.57882939     3521.3328      3.760841       30.099567      32.242043      58.076066      0.8476       
       923   4.8411113      299.94467      4.4703905      1.0516268     -7.416195      -6.3645682      2.4730074      0             -3.8915608      0.57882968     3531.0463      3.7610575      30.095313      32.600751      58.439532      0.8476       
       924   4.8412483      298.19267      4.4442785      1.0511861     -7.4140437     -6.3628577      2.4974092      0             -3.8654485      0.57882998     3540.5804      3.7612758      30.089544      32.95788       58.800684      0.8476       
       925   4.8413829      296.44094      4.4181706      1.0507459     -7.4119316     -6.3611858      2.5218454      0             -3.8393403      0.57883028     3549.9351      3.7614957      30.082261      33.313413      59.159508      0.8476       
       926   4.8415237      294.68979      4.3920715      1.0503063     -7.4098587     -6.3595524      2.5463115      0             -3.8132409      0.57883057     3559.1102      3.7617174      30.073463      33.667332      59.515988      0.8476       
       927   4.8416607      292.93955      4.3659858      1.0498674     -7.407825      -6.3579576      2.5708027      0             -3.787155       0.57883087     3568.1056      3.7619409      30.063151      34.01962       59.870107      0.8476       
       928   4.8417951      291.19054      4.3399184      1.049429      -7.4058305     -6.3564015      2.5953142      0             -3.7610873      0.57883116     3576.9212      3.7621661      30.051324      34.370259      60.221851      0.8476       
       929   4.8419385      289.44307      4.313874       1.0489914     -7.4038753     -6.354884       2.6198414      0             -3.7350425      0.57883146     3585.5569      3.7623931      30.037984      34.719232      60.571205      0.8476       
       930   4.8420803      287.69745      4.2878572      1.0485543     -7.4019594     -6.3534051      2.6443796      0             -3.7090255      0.57883175     3594.0125      3.7626218      30.023131      35.06652       60.918153      0.8476       
       931   4.8422166      285.95401      4.2618729      1.0481179     -7.4000827     -6.3519648      2.6689239      0             -3.6830409      0.57883205     3602.2881      3.7628522      30.006764      35.412108      61.262681      0.8476       
       932   4.8423512      284.21306      4.2359257      1.0476822     -7.3982454     -6.3505632      2.6934699      0             -3.6570933      0.57883234     3610.3835      3.7630844      29.988885      35.755977      61.604772      0.8476       
       933   4.8425012      282.47491      4.2100203      1.0472471     -7.3964474     -6.3492003      2.7180126      0             -3.6311876      0.57883264     3618.2987      3.7633184      29.969495      36.098111      61.944414      0.8476       
       934   4.8426378      280.73989      4.1841614      1.0468127     -7.3946888     -6.347876       2.7425476      0             -3.6053285      0.57883293     3626.0337      3.7635541      29.948594      36.438493      62.281591      0.8476       
       935   4.8427725      279.0083       4.1583537      1.046379      -7.3929695     -6.3465905      2.76707        0             -3.5795205      0.57883322     3633.5882      3.7637916      29.926182      36.777104      62.616287      0.8476       
       936   4.8429138      277.28046      4.1326019      1.045946      -7.3912896     -6.3453436      2.7915751      0             -3.5537684      0.57883352     3640.9624      3.7640308      29.902261      37.11393       62.94849       0.8476       
       937   5.0518385      275.55669      4.1069107      1.0455137     -7.3896491     -6.3441354      2.8160585      0             -3.5280769      0.57883381     3648.1562      3.7642718      29.876832      37.448952      63.278185      0.8476       
       938   5.0520304      273.83729      4.0812847      1.0450821     -7.388048      -6.3429659      2.8405153      0             -3.5024506      0.5788341      3655.1696      3.7645146      29.849895      37.782155      63.605357      0.8476       
       939   5.0521877      272.12258      4.0557286      1.0446512     -7.3864863     -6.3418351      2.8649409      0             -3.4768942      0.57883439     3662.0024      3.7647591      29.821451      38.113521      63.929993      0.8476       
       940   5.0523357      270.41286      4.0302469      1.044221      -7.384964      -6.340743       2.8893308      0             -3.4514122      0.57883468     3668.6548      3.7650054      29.791503      38.443034      64.252078      0.8476       
       941   5.0524911      268.70846      4.0048444      1.0437916     -7.3834812     -6.3396896      2.9136802      0             -3.4260094      0.57883496     3675.1268      3.7652535      29.76005       38.770677      64.571598      0.8476       
       942   5.0526395      267.00967      3.9795255      1.0433629     -7.3820378     -6.3386749      2.9379846      0             -3.4006903      0.57883525     3681.4182      3.7655033      29.727095      39.096435      64.888541      0.8476       
       943   5.0527849      265.31681      3.954295       1.0429349     -7.3806338     -6.3376989      2.9622395      0             -3.3754595      0.57883554     3687.5292      3.7657549      29.692638      39.42029       65.202892      0.8476       
       944   5.0529495      263.63017      3.9291574      1.0425077     -7.3792693     -6.3367616      2.9864401      0             -3.3503215      0.57883582     3693.4598      3.7660083      29.656681      39.742227      65.514638      0.8476       
       945   5.0530997      261.95008      3.9041172      1.0420812     -7.3779443     -6.335863       3.010582       0             -3.325281       0.57883611     3699.2099      3.7662635      29.619226      40.06223       65.823765      0.8476       
       946   5.0532461      260.27683      3.8791789      1.0416556     -7.3766587     -6.3350031      3.0346606      0             -3.3003425      0.57883639     3704.7797      3.7665204      29.580274      40.380281      66.13026       0.8476       
       947   5.0533915      258.61072      3.8543472      1.0412307     -7.3754125     -6.3341819      3.0586714      0             -3.2755105      0.57883667     3710.1691      3.7667791      29.539827      40.696367      66.434111      0.8476       
       948   5.0535415      256.95206      3.8296264      1.0408065     -7.3742059     -6.3333993      3.0826099      0             -3.2507894      0.57883695     3715.3782      3.7670395      29.710108      41.01047       66.735303      0.8476       
       949   5.0537023      255.30114      3.8050211      1.0403832     -7.3730386     -6.3326554      3.1064716      0             -3.2261838      0.57883723     3720.4071      3.7673018      29.956438      41.322576      67.033826      0.8476       
       950   5.0538495      253.65827      3.7805356      1.0399607     -7.3719108     -6.3319502      3.1302521      0             -3.2016981      0.5788375      3725.2558      3.7675658      30.201142      41.632667      67.329664      0.8476       
       951   5.0540145      252.02375      3.7561746      1.0395389     -7.3708225     -6.3312836      3.1539468      0             -3.1773368      0.57883778     3729.9244      3.7678316      30.444208      41.94073       67.622807      0.8476       
       952   5.0541646      250.39786      3.7319423      1.039118      -7.3697736     -6.3306556      3.1775514      0             -3.1531042      0.57883805     3734.4129      3.7680992      30.685624      42.246747      67.913241      0.8476       
       953   5.0543109      248.7809       3.7078431      1.0386979     -7.3687642     -6.3300663      3.2010615      0             -3.1290048      0.57883833     3738.7215      3.7683686      30.925376      42.550705      68.200954      0.8476       
       954   5.0544555      247.17317      3.6838814      1.0382786     -7.3677941     -6.3295155      3.2244727      0             -3.1050428      0.5788386      3742.8502      3.7686397      31.163452      42.852588      68.485935      0.8476       
       955   5.0546066      245.57496      3.6600615      1.0378602     -7.3668635     -6.3290034      3.2477807      0             -3.0812227      0.57883887     3746.7992      3.7689126      31.39984       43.15238       68.76817       0.8476       
       956   5.0547532      243.98655      3.6363878      1.0374426     -7.3659724     -6.3285298      3.2709811      0             -3.0575487      0.57883913     3750.5684      3.7691873      31.634529      43.450067      69.047648      0.8476       
       957   5.0549048      242.40823      3.6128645      1.0370258     -7.3651206     -6.3280947      3.2940696      0             -3.0340251      0.5788394      3754.1581      3.7694638      31.867505      43.745633      69.324357      0.8476       
       958   5.0550512      240.84029      3.5894959      1.0366099     -7.3643082     -6.3276982      3.3170421      0             -3.0106562      0.57883966     3757.5684      3.769742       32.098757      44.039064      69.598285      0.8476       
       959   5.0552045      239.28302      3.5662861      1.0361949     -7.3635351     -6.3273403      3.3398941      0             -2.9874462      0.57883993     3760.7994      3.770022       32.328274      44.330344      69.869422      0.8476       
       960   5.0553519      237.73668      3.5432394      1.0357807     -7.3628015     -6.3270208      3.3626215      0             -2.9643992      0.57884019     3763.8511      3.7703038      32.556042      44.619461      70.137754      0.8476       
       961   5.0554977      236.20156      3.5203599      1.0353674     -7.3621072     -6.3267397      3.3852202      0             -2.9415195      0.57884044     3766.7238      3.7705874      32.782051      44.906397      70.403271      0.8476       
       962   5.0556482      234.67794      3.4976519      1.034955      -7.3614522     -6.3264972      3.407686       0             -2.9188112      0.5788407      3769.4176      3.7708728      33.006289      45.19114       70.665963      0.8476       
       963   5.0557955      233.1661       3.4751192      1.0345435     -7.3608365     -6.326293       3.4300147      0             -2.8962783      0.57884095     3771.9326      3.7711599      33.228744      45.473675      70.925816      0.8476       
       964   5.0559489      231.6663       3.4527661      1.0341329     -7.3602601     -6.3261272      3.4522023      0             -2.8739249      0.57884121     3774.269       3.7714488      33.449405      45.753988      71.182822      0.8476       
       965   5.0561076      230.17881      3.4305966      1.0337232     -7.359723      -6.3259999      3.4742447      0             -2.8517551      0.57884146     3776.4269      3.7717395      33.668261      46.032064      71.436969      0.8476       
       966   5.0562603      228.70391      3.4086146      1.0333144     -7.3592252     -6.3259108      3.4961379      0             -2.8297729      0.5788417      3778.4066      3.7720319      33.885299      46.30789       71.688246      0.8476       
       967   5.0564078      227.24186      3.3868241      1.0329065     -7.3587665     -6.3258601      3.5178779      0             -2.8079821      0.57884195     3780.2081      3.7723262      34.100509      46.581451      71.936643      0.8476       
       968   5.0565533      225.79292      3.365229       1.0324995     -7.3583471     -6.3258476      3.5394608      0             -2.7863868      0.57884219     3781.8316      3.7726222      34.313881      46.852734      72.182149      0.8476       
       969   5.0566989      224.35735      3.3438332      1.0320935     -7.3579669     -6.3258734      3.5608826      0             -2.7649908      0.57884243     3783.2774      3.7729199      34.525402      47.121725      72.424754      0.8476       
       970   5.0568493      222.93542      3.3226407      1.0316884     -7.3576258     -6.3259374      3.5821394      0             -2.743798       0.57884267     3784.5457      3.7732195      34.735062      47.38841       72.664448      0.8476       
       971   5.0570046      221.52737      3.301655       1.0312842     -7.3573238     -6.3260396      3.6032274      0             -2.7228121      0.5788429      3785.6366      3.7735208      34.94285       47.652777      72.901222      0.8476       
       972   5.0571514      220.13346      3.2808802      1.030881      -7.3570609     -6.3261799      3.6241428      0             -2.702037       0.57884314     3786.5502      3.7738239      35.148756      47.914811      73.135064      0.8476       
       973   5.0573039      218.75394      3.2603198      1.0304788     -7.3568371     -6.3263583      3.6448819      0             -2.6814764      0.57884337     3787.287       3.7741287      35.352768      48.174499      73.365966      0.8476       
       974   5.0574515      217.38906      3.2399775      1.0300775     -7.3566523     -6.3265748      3.6654409      0             -2.6611339      0.5788436      3787.8469      3.7744353      35.554877      48.431828      73.593917      0.8476       
       975   5.0575983      216.03907      3.2198571      1.0296772     -7.3565066     -6.3268294      3.6858161      0             -2.6410133      0.57884382     3788.2303      3.7747437      35.755071      48.686786      73.818909      0.8476       
       976   5.0577437      214.7042       3.1999621      1.0292779     -7.3563997     -6.3271219      3.7060038      0             -2.6211181      0.57884404     3788.4375      3.7750538      35.953341      48.939358      74.040932      0.8476       
       977   5.057901       213.38469      3.1802961      1.0288795     -7.3563319     -6.3274524      3.7260005      0             -2.6014518      0.57884426     3788.4685      3.7753657      36.149676      49.189533      74.259977      0.8476       
       978   5.0580503      212.08078      3.1608626      1.0284822     -7.3563029     -6.3278207      3.7458026      0             -2.5820181      0.57884448     3788.3236      3.7756794      36.344066      49.437298      74.476034      0.8476       
       979   5.0581969      210.7927       3.1416651      1.0280858     -7.3563128     -6.328227       3.7654066      0             -2.5628204      0.57884469     3788.0032      3.7759948      36.536501      49.682639      74.689095      0.8476       
       980   5.0583487      209.52069      3.1227069      1.0276904     -7.3563615     -6.328671       3.784809       0             -2.543862       0.57884491     3787.5074      3.7763119      36.726971      49.925545      74.899152      0.8476       
       981   5.0585072      208.26497      3.1039916      1.0272961     -7.356449      -6.3291529      3.8040064      0             -2.5251465      0.57884511     3786.8364      3.7766309      36.915466      50.166004      75.106194      0.8476       
       982   5.0586543      207.02577      3.0855224      1.0269027     -7.3565752     -6.3296724      3.8229953      0             -2.5066771      0.57884532     3785.9906      3.7769515      37.101977      50.404002      75.310215      0.8476       
       983   5.0588002      205.8033       3.0673027      1.0265104     -7.3567401     -6.3302297      3.8417725      0             -2.4884572      0.57884552     3784.9702      3.7772739      37.286494      50.639528      75.511205      0.8476       
       984   5.0589601      204.59778      3.0493356      1.0261191     -7.3569437     -6.3308245      3.8603346      0             -2.4704899      0.57884572     3783.7754      3.7775981      37.469006      50.87257       75.709157      0.8476       
       985   5.2889238      203.40943      3.0316244      1.0257289     -7.3571859     -6.331457       3.8786785      0             -2.4527785      0.57884592     3782.4066      3.777924       37.649506      51.103116      75.904061      0.8476       
       986   5.2890985      202.23847      3.0141723      1.0253397     -7.3574666     -6.332127       3.8968008      0             -2.4353262      0.57884611     3780.8639      3.7782517      37.827983      51.331154      76.095911      0.8476       
       987   5.289255       201.08509      2.9969822      1.0249515     -7.3577859     -6.3328344      3.9146985      0             -2.4181359      0.5788463      3779.1477      3.778581       38.004428      51.556673      76.284699      0.8476       
       988   5.2894181      199.9495       2.9800574      1.0245644     -7.3581436     -6.3335792      3.9323683      0             -2.4012109      0.57884649     3777.2583      3.7789122      38.178832      51.77966       76.470416      0.8476       
       989   5.289571       198.8319       2.9634007      1.0241783     -7.3585397     -6.3343614      3.9498074      0             -2.384554       0.57884667     3775.196       3.779245       38.351186      52.000105      76.653055      0.8476       
       990   5.2897195      197.7325       2.9470152      1.0237933     -7.3589742     -6.335181       3.9670127      0             -2.3681683      0.57884686     3772.961       3.7795796      38.521482      52.217997      76.832609      0.8476       
       991   5.2898749      196.65149      2.9309036      1.0234093     -7.3594471     -6.3360377      3.9839811      0             -2.3520566      0.57884703     3770.5536      3.7799159      38.689709      52.433324      77.009071      0.8476       
       992   5.2900393      195.58905      2.915069       1.0230265     -7.3599581     -6.3369317      4.0007099      0             -2.3362218      0.57884721     3767.9742      3.780254       38.85586       52.646075      77.182433      0.8476       
       993   5.2901887      194.54537      2.899514       1.0226447     -7.3605074     -6.3378627      4.0171961      0             -2.3206666      0.57884738     3765.223       3.7805937      39.019926      52.856239      77.352689      0.8476       
       994   5.2903358      193.52065      2.8842414      1.022264      -7.3610948     -6.3388308      4.0334369      0             -2.3053939      0.57884755     3762.3004      3.7809352      39.181899      53.063805      77.519831      0.8476       
       995   5.2904942      192.51505      2.869254       1.0218844     -7.3617204     -6.339836       4.0494297      0             -2.2904063      0.57884771     3759.2067      3.7812784      39.341769      53.268763      77.683853      0.8476       
       996   5.2906454      191.52876      2.8545542      1.0215059     -7.3623839     -6.340878       4.0651717      0             -2.2757064      0.57884787     3755.9422      3.7816233      39.499529      53.471103      77.844749      0.8476       
       997   5.2907924      190.56194      2.8401448      1.0211285     -7.3630854     -6.341957       4.0806602      0             -2.2612968      0.57884803     3752.5072      3.7819699      39.655171      53.670813      78.002511      0.8476       
       998   5.2909678      189.61478      2.8260282      1.0207522     -7.3638249     -6.3430727      4.0958927      0             -2.24718        0.57884818     3748.902       3.7823183      39.808686      53.867884      78.157134      0.8476       
       999   5.2911196      188.68743      2.8122069      1.020377      -7.3646021     -6.3442252      4.1108666      0             -2.2333585      0.57884833     3745.1271      3.7826683      39.960066      54.062305      78.308612      0.8476       
      1000   5.2912683      187.78005      2.7986833      1.0200029     -7.3654172     -6.3454143      4.1255795      0             -2.2198348      0.57884848     3741.1826      3.78302        40.109304      54.254067      78.456938      0.8476       
Loop time of 5.29131 on 1 procs for 1000 steps with 6 atoms

Performance: 0.163 ns/day, 146.981 hours/ns, 188.989 timesteps/s
2.6% CPU use with 1 MPI tasks x no OpenMP threads

MPI task timing breakdown:
Section |  min time  |  avg time  |  max time  |%varavg| %total
---------------------------------------------------------------
Pair    | 0.0029269  | 0.0029269  | 0.0029269  |   0.0 |  0.06
Bond    | 0.0016989  | 0.0016989  | 0.0016989  |   0.0 |  0.03
Neigh   | 0          | 0          | 0          |   0.0 |  0.00
Comm    | 0.0021326  | 0.0021326  | 0.0021326  |   0.0 |  0.04
Output  | 5.2826     | 5.2826     | 5.2826     |   0.0 | 99.84
Modify  | 0.00067812 | 0.00067812 | 0.00067812 |   0.0 |  0.01
Other   |            | 0.001235   |            |       |  0.02

Nlocal:              6 ave           6 max           6 min
Histogram: 1 0 0 0 0 0 0 0 0 0
Nghost:            138 ave         138 max         138 min
Histogram: 1 0 0 0 0 0 0 0 0 0
Neighs:             11 ave          11 max          11 min
Histogram: 1 0 0 0 0 0 0 0 0 0

Total # of neighbors = 11
Ave neighs/atom = 1.8333333
Ave special neighs/atom = 2
Neighbor list builds = 0
Dangerous builds = 0
Total wall time: 0:00:05
