LAMMPS (4 May 2022)
# QMMM with NWChem for water dimer

units		real
atom_style	full

bond_style      harmonic
angle_style     harmonic

read_data       data.water.dimer
Reading data file ...
  orthogonal box = (-5 -5 -5) to (5 5 5)
  2 by 2 by 2 MPI processor grid
  reading atoms ...
  6 atoms
  scanning bonds ...
  2 = max bonds/atom
  scanning angles ...
  1 = max angles/atom
  reading bonds ...
  4 bonds
  reading angles ...
  2 angles
Finding 1-2 1-3 1-4 neighbors ...
  special bond factors lj:    0        0        0       
  special bond factors coul:  0        0        0       
     2 = max # of 1-2 neighbors
     1 = max # of 1-3 neighbors
     1 = max # of 1-4 neighbors
     2 = max # of special neighbors
  special bonds CPU = 0.001 seconds
  read_data CPU = 0.008 seconds

group           mm molecule 1
3 atoms in group mm
group           qm molecule 2
3 atoms in group qm

# remove bonds/angles in QM water molecule

delete_bonds    qm multi remove special
System init for delete_bonds ...
Deleting bonds ...
  2 total bonds, 2 turned on, 0 turned off
  1 total angles, 1 turned on, 0 turned off
  0 total dihedrals, 0 turned on, 0 turned off
  0 total impropers, 0 turned on, 0 turned off
Finding 1-2 1-3 1-4 neighbors ...
  special bond factors lj:    0        0        0       
  special bond factors coul:  0        0        0       
     2 = max # of 1-2 neighbors
     1 = max # of 1-3 neighbors
     1 = max # of 1-4 neighbors
     2 = max # of special neighbors
  special bonds CPU = 0.000 seconds

# pair style must define stand-alone short-range Coulombics

pair_style      hybrid/overlay lj/cut 6.0 coul/cut 6.0
pair_coeff      1 1 lj/cut 0.13506 3.166
pair_coeff      2 2 lj/cut 0.0 1.0
pair_coeff      * * coul/cut

velocity        all create 300.0 458732

neighbor	1.0 bin
neigh_modify	delay 0 every 1 check yes

fix		1 all nve

fix             2 qm nwchem template-water.nw water-dimer.nw                 log.pwdft.water-dimer O H
fix_modify      2 energy yes

compute         1 all pair/local dist
compute         2 all reduce max c_1

variable        fxabs atom abs(fx)
variable        fyabs atom abs(fy)
variable        fzabs atom abs(fz)
variable        qabs atom abs(q)
compute         3 all reduce max v_fxabs v_fyabs v_fzabs v_qabs

dump            1 all custom 1 dump.water.dimer.qmmm id x y z q fx fy fz
dump_modify     1 sort id format float "%20.16g"

timestep        0.01

thermo_style    custom step cpu temp ke evdwl ecoul epair emol elong f_2 pe etotal press                 c_2 c_3[*]

thermo          1

run		1000
Generated 0 of 1 mixed pair_coeff terms from geometric mixing rule
Neighbor list info ...
  update every 1 steps, delay 0 steps, check yes
  max neighbors/atom: 2000, page size: 100000
  master list distance cutoff = 7
  ghost atom cutoff = 7
  binsize = 3.5, bins = 3 3 3
  3 neighbor lists, perpetual/occasional/extra = 2 1 0
  (1) pair lj/cut, perpetual, skip from (2)
      attributes: half, newton on
      pair build: skip
      stencil: none
      bin: none
  (2) pair coul/cut, perpetual
      attributes: half, newton on
      pair build: half/bin/newton
      stencil: half/bin/3d
      bin: standard
  (3) compute pair/local, occasional, copy from (2)
      attributes: half, newton on
      pair build: copy
      stencil: none
      bin: none
Per MPI rank memory allocation (min/avg/max) = 7.608 | 8.391 | 8.875 Mbytes
   Step          CPU            Temp          KinEng         E_vdwl         E_coul         E_pair         E_mol          E_long          f_2           PotEng         TotEng         Press           c_2           c_3[1]         c_3[2]         c_3[3]         c_3[4]    
         0   0              300            4.4712151      1.4460769     -156.41522     -154.96914      1.5216554      0             -10694.103     -10847.551     -10843.079     -1340.3569      3.6506239      65.178593      52.412068      222.20969      0.8476       
         1   2.9847838      297.31851      4.4312501      1.4452226     -156.35458     -154.90936      1.5429249      0             -10694.163     -10847.529     -10843.098     -1326.2287      3.6502018      65.230767      52.318758      221.95231      0.8476       
         2   4.7443578      294.76314      4.3931647      1.4443746     -156.25681     -154.81244      1.5643925      0             -10694.251     -10847.499     -10843.106     -1311.2534      3.6497805      65.312251      52.164181      225.14458      0.8476       
         3   7.9235707      292.34033      4.357055       1.4435328     -156.25857     -154.81503      1.5860538      0             -10694.249     -10847.478     -10843.121     -1298.551       3.6493599      65.247547      52.154648      221.80713      0.8476       
         4   9.6953949      290.05006      4.3229207      1.4426973     -156.16283     -154.72013      1.607904       0             -10694.335     -10847.447     -10843.124     -1283.6186      3.6489402      65.310438      51.990189      225.15041      0.8476       
         5   14.306149      287.89399      4.2907865      1.4418682     -156.23241     -154.79055      1.6299388      0             -10694.263     -10847.424     -10843.133     -1272.4628      3.6485213      65.144826      52.119318      222.36901      0.8476       
         6   16.749955      285.87617      4.2607129      1.4410452     -156.15673     -154.71569      1.6521535      0             -10694.332     -10847.396     -10843.135     -1257.9825      3.6481033      65.176883      51.977773      223.03829      0.8476       
         7   19.926477      283.99185      4.2326288      1.4402285     -156.14882     -154.70859      1.6745433      0             -10694.337     -10847.371     -10843.138     -1245.0505      3.6476861      65.126983      51.953734      221.92818      0.8476       
         8   21.707658      282.23798      4.206489       1.4394181     -156.05218     -154.61276      1.6971038      0             -10694.424     -10847.34      -10843.134     -1230.0927      3.6472698      65.157951      51.766642      224.74291      0.8476       
         9   25.552034      280.6188       4.1823567      1.4386139     -156.11282     -154.67421      1.7198301      0             -10694.363     -10847.317     -10843.135     -1218.7294      3.6468544      65.037693      51.872066      222.14837      0.8476       
        10   27.285448      279.1352       4.1602451      1.4378161     -156.01705     -154.57924      1.7427176      0             -10694.45      -10847.286     -10843.126     -1203.7908      3.64644        65.052143      51.677137      224.34516      0.8476       
        11   31.092183      277.78664      4.140146       1.4370245     -156.07101     -154.63398      1.7657614      0             -10694.396     -10847.264     -10843.124     -1192.2747      3.6460264      64.952598      51.769423      222.04817      0.8476       
        12   32.778854      276.57343      4.1220643      1.4362391     -155.97644     -154.5402       1.7889568      0             -10694.483     -10847.234     -10843.112     -1177.3647      3.6456139      64.950098      51.566303      224.08862      0.8476       
        13   36.779901      275.49556      4.1059997      1.4354601     -156.03546     -154.6          1.8122988      0             -10694.426     -10847.213     -10843.107     -1165.9667      3.6452023      64.857504      51.666429      222.05975      0.8476       
        14   38.484427      274.55334      4.0919568      1.4346873     -155.94191     -154.50722      1.8357828      0             -10694.512     -10847.183     -10843.091     -1151.0827      3.6447917      64.839796      51.450963      223.85495      0.8476       
        15   42.486924      273.74676      4.0799354      1.4339208     -156.0055      -154.57158      1.8594037      0             -10694.452     -10847.164     -10843.084     -1139.7925      3.6443822      64.756491      51.557091      222.06974      0.8476       
        16   44.205657      273.07594      4.0699376      1.4331606     -155.91198     -154.47881      1.8831567      0             -10694.539     -10847.134     -10843.064     -1124.9139      3.6439737      64.722673      51.329347      223.72806      0.8476       
        17   48.331265      272.54104      4.0619654      1.4324066     -155.97899     -154.54658      1.9070368      0             -10694.478     -10847.117     -10843.055     -1113.7072      3.6435662      64.648141      51.439802      222.03601      0.8476       
        18   50.124457      272.14212      4.0560198      1.4316589     -155.88564     -154.45398      1.9310391      0             -10694.564     -10847.087     -10843.031     -1098.8387      3.6431598      64.598996      51.198281      223.55965      0.8476       
        19   54.252654      271.87936      4.0521036      1.4309175     -155.95866     -154.52774      1.9551586      0             -10694.499     -10847.072     -10843.02      -1087.7761      3.6427545      64.533289      51.317197      221.98793      0.8476       
        20   55.983351      271.75272      4.0502163      1.4301824     -155.86484     -154.43466      1.9793902      0             -10694.587     -10847.042     -10842.992     -1072.9043      3.6423504      64.467204      51.062395      223.43733      0.8476       
        21   60.025207      271.76248      4.0503617      1.4294536     -155.94327     -154.51381      2.003729       0             -10694.519     -10847.029     -10842.978     -1061.9738      3.6419473      64.409962      51.189228      221.89987      0.8476       
        22   61.732888      271.90856      4.0525389      1.428731      -155.8494      -154.42066      2.0281699      0             -10694.607     -10846.999     -10842.946     -1047.1102      3.6415454      64.328318      50.919893      223.24953      0.8476       
        23   65.844338      272.19123      4.0567517      1.4280147     -155.93541     -154.5074       2.0527078      0             -10694.533     -10846.988     -10842.931     -1036.3631      3.6411447      64.280681      51.057623      221.81794      0.8476       
        24   67.587327      272.61034      4.0629982      1.4273047     -155.84112     -154.41381      2.0773377      0             -10694.622     -10846.958     -10842.895     -1021.5005      3.6407452      64.181497      50.774501      223.08732      0.8476       
        25   71.698838      273.16621      4.0712829      1.426601      -155.9341      -154.5075       2.1020543      0             -10694.544     -10846.949     -10842.878     -1010.9242      3.6403469      64.143248      50.922104      221.71392      0.8476       
        26   73.454689      273.85867      4.0816034      1.4259036     -155.83976     -154.41386      2.1268527      0             -10694.633     -10846.92      -10842.838     -996.07266      3.6399498      64.027807      50.624248      222.87631      0.8476       
        27   77.595798      274.68803      4.0939641      1.4252124     -155.94075     -154.51553      2.1517277      0             -10694.549     -10846.913     -10842.819     -985.69228      3.639554       63.999874      50.782918      221.61676      0.8476       
        28   79.372099      275.65405      4.1083619      1.4245275     -155.84621     -154.42169      2.1766741      0             -10694.639     -10846.884     -10842.775     -970.85026      3.6391594      63.866884      50.470836      222.67968      0.8476       
        29   83.367506      276.75708      4.1248015      1.4238489     -155.95508     -154.53123      2.2016867      0             -10694.55      -10846.88      -10842.755     -960.66453      3.6387661      63.849292      50.640353      221.52015      0.8476       
        30   85.147711      277.99687      4.1432794      1.4231766     -155.86061     -154.43743      2.2267604      0             -10694.64      -10846.85      -10842.707     -945.83922      3.6383741      63.69923       50.313642      222.45362      0.8476       
        31   89.033436      279.37374      4.1638002      1.4225105     -155.97748     -154.55497      2.25189        0             -10694.546     -10846.849     -10842.685     -935.85246      3.6379834      63.692272      50.493537      221.42346      0.8476       
        32   90.830723      280.88738      4.1863597      1.4218508     -155.88307     -154.46121      2.2770703      0             -10694.635     -10846.82      -10842.633     -921.04519      3.6375941      63.524693      50.152655      222.23638      0.8476       
        33   95.987052      282.54066      4.2110002      1.4211973     -156.13398     -154.71278      2.3022961      0             -10694.438     -10846.848     -10842.637     -914.13801      3.6372061      63.588355      50.457908      222.42827      0.8476       
        34   97.745075      284.33429      4.2377326      1.4205501     -156.03897     -154.61842      2.3275621      0             -10694.528     -10846.819     -10842.581     -899.33148      3.6368195      63.402656      50.112174      222.5735       0.8476       
        35   100.89294      286.26006      4.2664344      1.4199092     -156.04213     -154.62222      2.3528632      0             -10694.531     -10846.801     -10842.534     -886.7815       3.6364343      63.319599      50.089597      220.93901      0.8476       
        36   104.8524       288.3308       4.2972967      1.4192745     -156.14891     -154.72964      2.3781941      0             -10694.451     -10846.803     -10842.505     -876.60478      3.6360505      63.314059      50.185021      221.46882      0.8476       
        37   106.65774      290.53463      4.3301427      1.4186462     -156.05584     -154.6372       2.4035495      0             -10694.54      -10846.774     -10842.444     -861.87331      3.6356682      63.102702      49.813348      221.92433      0.8476       
        38   111.27178      292.87598      4.3650383      1.4180241     -156.23416     -154.81614      2.4289243      0             -10694.403     -10846.79      -10842.425     -853.35517      3.6352873      63.148855      50.044504      222.16152      0.8476       
        39   113.03893      295.35494      4.4019848      1.4174083     -156.14255     -154.72515      2.4543131      0             -10694.491     -10846.761     -10842.36      -838.67821      3.6349078      62.920274      49.654224      221.79115      0.8476       
        40   117.62437      297.97058      4.4409686      1.4167989     -156.28575     -154.86895      2.4797108      0             -10694.382     -10846.771     -10842.33      -829.37969      3.6345299      62.951759      49.852872      221.90842      0.8476       
        41   120.04778      300.72558      4.4820292      1.4161957     -156.22197     -154.80578      2.5051121      0             -10694.447     -10846.747     -10842.265     -815.36089      3.6341534      62.737517      49.530669      220.79484      0.8476       
        42   124.76642      303.61934      4.5251579      1.4155987     -156.41446     -154.99886      2.5305118      0             -10694.302     -10846.77      -10842.245     -807.21037      3.6337785      62.787431      49.714451      221.75724      0.8476       
        43   127.16734      306.65272      4.5703675      1.4150081     -156.35203     -154.93702      2.5559045      0             -10694.365     -10846.746     -10842.176     -793.24405      3.6334051      62.567843      49.418032      220.64798      0.8476       
        44   130.36456      309.81933      4.6175628      1.4144237     -156.38963     -154.9752       2.5812851      0             -10694.342     -10846.736     -10842.118     -781.57934      3.6330333      62.509556      49.422918      220.857        0.8476       
        45   132.09811      313.11351      4.6666594      1.4138457     -156.29842     -154.88458      2.6066483      0             -10694.429     -10846.707     -10842.04      -766.99046      3.632663       62.231384      49.002789      220.63816      0.8476       
        46   137.3552       316.54864      4.7178568      1.4132738     -156.58876     -155.17549      2.6319889      0             -10694.207     -10846.75      -10842.032     -761.13289      3.6322944      62.382003      49.355082      221.47306      0.8476       
        47   140.51799      320.13217      4.7712659      1.4127083     -156.55785     -155.14514      2.6573017      0             -10694.244     -10846.732     -10841.961     -747.93884      3.6319273      62.167813      49.098622      220.17615      0.8476       
        48   144.32226      323.85088      4.8266898      1.4121491     -156.63321     -155.22106      2.6825814      0             -10694.193     -10846.732     -10841.905     -737.18917      3.6315619      62.127317      49.121001      220.94463      0.8476       
        49   148.14289      327.71347      4.884258       1.4115961     -156.74765     -155.33605      2.7078228      0             -10694.116     -10846.745     -10841.86      -727.3424       3.6311981      62.047226      49.073781      220.25172      0.8476       
        50   149.8507       331.69993      4.9436724      1.4110494     -156.6526      -155.24155      2.7330206      0             -10694.207     -10846.715     -10841.772     -712.73135      3.630836       61.724627      48.61725       219.87778      0.8476       
        51   154.96755      335.82265      5.0051176      1.4105089     -156.89754     -155.48703      2.7581698      0             -10694.023     -10846.752     -10841.747     -705.90659      3.6304756      61.842858      48.884746      221.0544       0.8476       
        52   157.99584      340.09069      5.0687288      1.4099748     -156.86084     -155.45086      2.7832651      0             -10694.064     -10846.732     -10841.663     -692.65409      3.6301168      61.605461      48.620465      219.77334      0.8476       
        53   162.04698      344.4926       5.1343351      1.4094469     -156.93143     -155.52199      2.8083013      0             -10694.017     -10846.731     -10841.597     -681.87181      3.6297598      61.55678       48.634426      220.48315      0.8476       
        54   166.5158       349.04126      5.2021285      1.4089253     -157.12416     -155.71524      2.8332733      0             -10693.881     -10846.763     -10841.561     -673.89036      3.6294045      61.520937      48.646608      220.51825      0.8476       
        55   168.92275      353.71843      5.2718373      1.4084099     -157.05166     -155.64325      2.8581759      0             -10693.952     -10846.737     -10841.465     -659.86847      3.629051       61.206384      48.256787      219.28697      0.8476       
        56   174.14544      358.52956      5.3435427      1.4079008     -157.27472     -155.86682      2.8830039      0             -10693.789     -10846.772     -10841.429     -652.62068      3.6286992      61.262991      48.395613      220.33547      0.8476       
        57   177.3056       363.48033      5.4173291      1.407398      -157.23042     -155.82302      2.9077523      0             -10693.835     -10846.75      -10841.333     -639.27682      3.6283492      61.004033      48.127889      219.26029      0.8476       
        58   181.11668      368.56277      5.493078       1.4069015     -157.29555     -155.88865      2.9324159      0             -10693.792     -10846.749     -10841.256     -628.45474      3.6280011      60.942853      48.120553      220.00059      0.8476       
        59   185.53322      373.79128      5.571004       1.4064112     -157.48923     -156.08282      2.9569897      0             -10693.655     -10846.781     -10841.21      -620.58187      3.6276547      60.899239      48.124321      219.9649       0.8476       
        60   187.95635      379.14554      5.6508041      1.4059273     -157.41895     -156.01303      2.9814685      0             -10693.723     -10846.755     -10841.104     -606.70094      3.6273102      60.553287      47.716596      218.528        0.8476       
        61   193.17362      384.63262      5.7325838      1.4054495     -157.66511     -156.25966      3.0058474      0             -10693.542     -10846.796     -10841.064     -600.07306      3.6269675      60.623074      47.864351      219.60084      0.8476       
        62   196.26583      390.2589       5.8164382      1.404978      -157.62106     -156.21609      3.0301212      0             -10693.588     -10846.773     -10840.957     -586.82867      3.6266267      60.339186      47.582441      218.61299      0.8476       
        63   200.29509      396.01486      5.9022253      1.4045128     -157.69509     -156.29058      3.0542851      0             -10693.538     -10846.774     -10840.872     -576.30611      3.6262878      60.275612      47.572602      219.43626      0.8476       
        64   204.84767      401.91733      5.990196       1.4040539     -157.90796     -156.50391      3.0783339      0             -10693.386     -10846.812     -10840.821     -568.96903      3.6259508      60.231385      47.576899      219.32145      0.8476       
        65   208.61304      407.95625      6.0802005      1.4036012     -157.94442     -156.54082      3.1022628      0             -10693.369     -10846.807     -10840.727     -557.61855      3.6256158      60.016132      47.378478      218.87734      0.8476       
        66   212.38914      414.12513      6.1721418      1.4031548     -158.02396     -156.62081      3.1260667      0             -10693.317     -10846.812     -10840.64      -547.27672      3.6252826      59.894703      47.285475      219.02034      0.8476       
        67   216.06673      420.42931      6.2660995      1.4027146     -158.12726     -156.72454      3.1497409      0             -10693.248     -10846.822     -10840.556     -537.49786      3.6249514      59.75621       47.178598      218.79191      0.8476       
        68   220.12212      426.86765      6.3620569      1.4022807     -158.22445     -156.82217      3.1732803      0             -10693.183     -10846.832     -10840.469     -527.60058      3.6246222      59.615558      47.399191      218.7944       0.8476       
        69   223.94389      433.43913      6.4599986      1.4018531     -158.32824     -156.92638      3.1966801      0             -10693.113     -10846.842     -10840.382     -517.87631      3.624295       59.465447      47.639386      218.51713      0.8476       
        70   227.81413      440.14294      6.5599124      1.4014317     -158.42418     -157.02275      3.2199356      0             -10693.048     -10846.851     -10840.291     -507.99568      3.6239698      59.314498      47.877338      218.51586      0.8476       
        71   231.64511      446.97884      6.661795       1.4010166     -158.53191     -157.13089      3.2430418      0             -10692.975     -10846.863     -10840.201     -498.40737      3.6236466      59.163237      48.113152      218.23052      0.8476       
        72   235.44287      453.94638      6.7656396      1.4006077     -158.63216     -157.23155      3.265994       0             -10692.907     -10846.872     -10840.106     -488.67197      3.6233254      59.007011      48.346702      218.23327      0.8476       
        73   239.2325       461.04526      6.8714417      1.4002051     -158.74493     -157.34473      3.2887875      0             -10692.829     -10846.885     -10840.013     -479.24682      3.6230063      58.853298      48.578094      217.92719      0.8476       
        74   245.08742      468.2836       6.9793223      1.3998087     -159.10103     -157.70122      3.3114176      0             -10692.569     -10846.959     -10839.98      -475.40197      3.6226893      58.798413      48.808667      216.97607      0.8476       
        75   248.11351      475.64524      7.0890405      1.3994186     -159.02108     -157.62166      3.3338796      0             -10692.638     -10846.925     -10839.836     -461.62062      3.6223743      58.439499      49.034414      216.66613      0.8476       
        76   253.77996      483.13188      7.2006219      1.3990346     -159.25107     -157.85204      3.3561687      0             -10692.47      -10846.966     -10839.765     -454.9524       3.6220615      58.431113      49.259735      216.66384      0.8476       
        77   258.24016      490.75641      7.3142581      1.3986569     -159.30461     -157.90595      3.3782806      0             -10692.436     -10846.963     -10839.649     -444.27143      3.6217508      58.219266      49.481738      216.89257      0.8476       
        78   263.4214       498.51196      7.4298473      1.3982855     -159.4705      -158.07221      3.4002104      0             -10692.316     -10846.988     -10839.558     -436.18354      3.6214422      58.112408      49.702113      216.71563      0.8476       
        79   267.95766      506.39843      7.5473876      1.3979202     -159.55889     -158.16097      3.4219538      0             -10692.254     -10846.993     -10839.446     -426.34973      3.6211357      57.90964       49.919732      216.58511      0.8476       
        80   273.17664      514.41413      7.6668541      1.3975612     -159.74038     -158.34282      3.4435062      0             -10692.123     -10847.022     -10839.355     -418.67068      3.6208315      57.784725      50.135587      216.2632       0.8476       
        81   277.4531       522.55743      7.7882222      1.3972084     -159.81807     -158.42086      3.4648631      0             -10692.068     -10847.024     -10839.236     -408.64706      3.6205294      57.565216      50.348513      216.13055      0.8476       
        82   282.60638      530.82803      7.9114877      1.3968619     -160.0026      -158.60574      3.4860202      0             -10691.933     -10847.053     -10839.141     -401.09362      3.6202295      57.439955      50.559733      215.80748      0.8476       
        83   287.75586      539.22987      8.0367091      1.3965215     -160.14805     -158.75153      3.506973       0             -10691.827     -10847.071     -10839.035     -392.6729       3.6199318      57.265424      50.768381      215.64731      0.8476       
        84   292.25399      547.75433      8.163758       1.3961874     -160.22661     -158.83042      3.5277172      0             -10691.77      -10847.073     -10838.909     -382.75512      3.6196363      57.040304      50.974286      215.45062      0.8476       
        85   297.41596      556.40385      8.2926709      1.3958594     -160.4139      -159.01804      3.5482485      0             -10691.631     -10847.101     -10838.809     -375.35286      3.6193431      56.908114      51.178463      215.09864      0.8476       
        86   302.61106      565.18324      8.4235194      1.3955377     -160.57067     -159.17513      3.5685627      0             -10691.515     -10847.122     -10838.698     -367.28007      3.6190522      56.730818      51.380087      214.95008      0.8476       
        87   307.00195      574.08337      8.5561674      1.3952221     -160.6538      -159.25857      3.5886555      0             -10691.453     -10847.123     -10838.567     -357.55756      3.6187635      56.496136      51.5789        214.74109      0.8476       
        88   312.17724      583.10648      8.6906484      1.3949128     -160.84921     -159.4543       3.6085227      0             -10691.307     -10847.152     -10838.462     -350.43372      3.6184772      56.359156      51.775973      214.36893      0.8476       
        89   317.32988      592.25791      8.8270416      1.3946096     -161.01514     -159.62053      3.6281604      0             -10691.181     -10847.174     -10838.347     -342.66446      3.6181931      56.176464      51.97047       214.20417      0.8476       
        90   322.49096      601.53282      8.9652754      1.3943127     -161.16463     -159.77032      3.6475642      0             -10691.068     -10847.191     -10838.226     -334.55137      3.6179113      55.98419       52.162456      213.92268      0.8476       
        91   327.58465      610.92992      9.1053302      1.3940219     -161.32782     -159.9338       3.6667303      0             -10690.944     -10847.211     -10838.105     -326.78443      3.6176319      55.797637      52.352099      213.67151      0.8476       
        92   332.62173      620.44844      9.2471947      1.3937372     -161.48164     -160.08791      3.6856547      0             -10690.826     -10847.228     -10837.981     -318.83706      3.6173549      55.600617      52.539256      213.39226      0.8476       
        93   337.49785      630.08747      9.3908553      1.3934588     -161.64567     -160.25221      3.7043333      0             -10690.699     -10847.247     -10837.856     -311.15717      3.6170802      55.408178      52.72403       213.13294      0.8476       
        94   342.63522      639.84633      9.5363018      1.3931865     -161.8046      -160.41141      3.7227624      0             -10690.576     -10847.264     -10837.728     -303.39559      3.6168079      55.207556      52.906322      212.84613      0.8476       
        95   347.76115      649.72417      9.6835217      1.3929204     -161.97258     -160.57966      3.740938       0             -10690.445     -10847.283     -10837.6       -295.87652      3.616538       55.010251      53.086206      212.5771       0.8476       
        96   352.91382      659.72026      9.8325039      1.3926604     -162.1372      -160.74454      3.7588565      0             -10690.315     -10847.301     -10837.468     -288.31687      3.6162705      54.805885      53.263602      212.28012      0.8476       
        97   358.64235      669.83376      9.983236       1.3924066     -162.30993     -160.91753      3.776514       0             -10690.179     -10847.32      -10837.337     -280.97934      3.6160054      54.60395       53.438564      212.00221      0.8476       
        98   363.8446       680.06386      10.135706      1.3921589     -162.48028     -161.08812      3.7939069      0             -10690.043     -10847.338     -10837.202     -273.62467      3.6157428      54.395655      53.611025      211.69331      0.8476       
        99   368.9872       690.40968      10.289901      1.3919173     -162.6579      -161.26598      3.8110316      0             -10689.902     -10847.357     -10837.067     -266.47443      3.6154826      54.189114      53.781032      211.40708      0.8476       
       100   374.1195       700.87037      10.445807      1.3916819     -162.8339      -161.44222      3.8278844      0             -10689.76      -10847.374     -10836.929     -259.32598      3.6152249      53.976797      53.948523      211.08508      0.8476       
       101   379.39041      711.44501      10.603412      1.3914526     -163.01646     -161.62501      3.8444619      0             -10689.613     -10847.393     -10836.79      -252.36697      3.6149697      53.765647      54.113539      210.79089      0.8476       
       102   384.59267      722.1327       10.762702      1.3912294     -163.19808     -161.80685      3.8607605      0             -10689.465     -10847.411     -10836.648     -245.42653      3.614717       53.549243      54.276026      210.45481      0.8476       
       103   389.8404       732.93245      10.923662      1.3910124     -163.38564     -161.99463      3.876777       0             -10689.312     -10847.43      -10836.506     -238.66274      3.6144668      53.33347       54.436017      210.15282      0.8476       
       104   395.0722       743.84334      11.086278      1.3908014     -163.57287     -162.18207      3.8925078      0             -10689.158     -10847.447     -10836.361     -231.93284      3.6142192      53.112928      54.593468      209.80183      0.8476       
       105   401.00625      754.86915      11.250608      1.3905966     -163.85632     -162.46573      3.9079498      0             -10688.931     -10847.488     -10836.238     -227.44145      3.613974       52.933097      54.748912      209.45242      0.8476       
       106   406.19234      766.00356      11.416555      1.3903978     -163.98456     -162.59417      3.9230996      0             -10688.819     -10847.49      -10836.074     -219.44583      3.6137315      52.659139      54.900927      209.05146      0.8476       
       107   412.07364      777.24557      11.584107      1.3902052     -164.24434     -162.85414      3.9379542      0             -10688.608     -10847.524     -10835.94      -214.50077      3.6134915      52.478981      55.051119      208.76277      0.8476       
       108   417.33976      788.59489      11.753258      1.3900186     -164.38418     -162.99416      3.9525102      0             -10688.485     -10847.527     -10835.773     -206.85867      3.6132541      52.208163      55.198068      208.33458      0.8476       
       109   423.1917       800.05079      11.923997      1.389838      -164.65501     -163.26517      3.9667648      0             -10688.263     -10847.561     -10835.637     -202.25554      3.6130193      52.025043      55.343174      208.06119      0.8476       
       110   428.50088      811.61181      12.096303      1.3896636     -164.79712     -163.40745      3.9807149      0             -10688.136     -10847.562     -10835.466     -194.75631      3.6127871      51.74718       55.484975      207.6125       0.8476       
       111   434.40646      823.27685      12.27016       1.3894952     -165.07135     -163.68185      3.9943576      0             -10687.908     -10847.596     -10835.325     -190.32364      3.6125575      51.559589      55.624921      207.34457      0.8476       
       112   439.71511      835.04461      12.445547      1.3893328     -165.21782     -163.82848      4.0076899      0             -10687.775     -10847.596     -10835.151     -183.01836      3.6123306      51.276237      55.761555      206.85499      0.8476       
       113   445.52729      846.91409      12.62245       1.3891765     -165.50018     -164.111        4.020709       0             -10687.539     -10847.629     -10835.007     -178.86749      3.6121063      51.085588      55.896338      206.57765      0.8476       
       114   450.87499      858.88394      12.800849      1.3890263     -165.65085     -164.26182      4.0334122      0             -10687.4       -10847.629     -10834.828     -171.75583      3.6118847      50.796552      56.027777      206.08333      0.8476       
       115   457.31493      870.95678      12.980784      1.388882      -166.02112     -164.63224      4.0457968      0             -10687.095     -10847.681     -10834.701     -169.71104      3.6116658      50.626159      56.157808      205.59792      0.8476       
       116   462.15174      883.12664      13.162164      1.3887438     -166.11577     -164.72702      4.0578602      0             -10686.996     -10847.665     -10834.503     -161.41808      3.6114495      50.298191      56.283689      205.13615      0.8476       
       117   467.96464      895.38837      13.344913      1.3886116     -166.3836      -164.99498      4.0695998      0             -10686.765     -10847.69      -10834.345     -157.13857      3.611236       50.102696      56.407893      204.96399      0.8476       
       118   473.3951       907.74583      13.52909       1.3884853     -166.54539     -165.15691      4.081013       0             -10686.612     -10847.688     -10834.159     -150.48803      3.6110252      49.808099      56.528875      204.42606      0.8476       
       119   479.84422      920.20235      13.714742      1.3883651     -166.93686     -165.5485       4.0920975      0             -10686.284     -10847.74      -10834.026     -149.13723      3.6108171      49.633074      56.648469      203.94484      0.8476       
       120   485.02914      932.75096      13.901767      1.3882509     -167.03891     -165.65066      4.1028508      0             -10686.174     -10847.721     -10833.82      -141.22617      3.6106118      49.293338      56.763822      203.43742      0.8476       
       121   490.78354      945.38588      14.090079      1.3881426     -167.32166     -165.93352      4.1132707      0             -10685.925     -10847.745     -10833.655     -137.50434      3.6104093      49.091201      56.877507      203.24393      0.8476       
       122   497.61921      958.12479      14.27994       1.3880403     -167.67598     -166.28794      4.1233549      0             -10685.62      -10847.785     -10833.505     -135.46523      3.6102095      48.876077      56.988915      202.74605      0.8476       
       123   502.9158       970.94585      14.471026      1.3879439     -167.77493     -166.38698      4.1331012      0             -10685.507     -10847.761     -10833.29      -127.65088      3.6100125      48.518397      57.09626       202.02263      0.8476       
       124   509.48146      983.85102      14.663365      1.3878535     -168.14333     -166.75547      4.1425076      0             -10685.188     -10847.801     -10833.138     -126.05566      3.6098183      48.336672      57.202395      201.77335      0.8476       
       125   514.66892      996.84094      14.856968      1.387769      -168.25959     -166.87182      4.1515719      0             -10685.058     -10847.779     -10832.922     -118.75749      3.6096269      47.98602       57.304481      201.13719      0.8476       
       126   521.45452      1009.915       15.051824      1.3876905     -168.64885     -167.26116      4.1602923      0             -10684.72      -10847.821     -10832.769     -117.75921      3.6094384      47.909645      57.405357      200.84095      0.8476       
       127   527.37911      1023.0792      15.248024      1.3876178     -168.84661     -167.459        4.1686668      0             -10684.525     -10847.815     -10832.567     -112.44034      3.6092526      47.983837      57.502503      200.3277       0.8476       
       128   534.04777      1036.3262      15.445458      1.3875511     -169.18748     -167.79993      4.1766935      0             -10684.22      -10847.843     -10832.397     -110.45358      3.6090698      48.056288      57.597721      199.91717      0.8476       
       129   539.26276      1049.6449      15.64396       1.3874902     -169.30587     -167.91838      4.1843708      0             -10684.081     -10847.815     -10832.171     -103.45041      3.6088897      48.125961      57.689043      199.12648      0.8476       
       130   545.9621       1063.0395      15.843594      1.3874352     -169.70531     -168.31788      4.1916968      0             -10683.727     -10847.853     -10832.009     -102.93683      3.6087126      48.194276      57.779164      198.83395      0.8476       
       131   551.75642      1076.5172      16.044467      1.3873862     -169.90834     -168.52095      4.19867        0             -10683.52      -10847.842     -10831.797     -97.99484       3.6085384      48.259871      57.865519      198.28781      0.8476       
       132   559.58131      1090.0707      16.246468      1.3873429     -170.26053     -168.87319      4.2052889      0             -10683.197     -10847.865     -10831.619     -96.528104      3.608367       48.323721      57.949952      197.84861      0.8476       
       133   567.47326      1103.697       16.449555      1.3873055     -170.46564     -169.07833      4.2115519      0             -10682.985     -10847.852     -10831.402     -91.767359      3.6081986      48.38499       58.03088       197.2303       0.8476       
       134   574.30328      1117.3942      16.653699      1.387274      -170.82277     -169.4355       4.2174576      0             -10682.654     -10847.872     -10831.219     -90.550474      3.608033       48.444516      58.109889      196.79656      0.8476       
       135   580.0663       1131.1602      16.858869      1.3872483     -171.03091     -169.64366      4.2230046      0             -10682.435     -10847.856     -10830.997     -85.99851       3.6078705      48.501451      58.185376      196.12081      0.8476       
       136   586.63362      1144.9931      17.065035      1.3872284     -171.39227     -170.00504      4.2281918      0             -10682.097     -10847.874     -10830.809     -85.020202      3.6077108      48.556636      58.25894       195.66971      0.8476       
       137   592.56309      1158.891       17.27217       1.3872143     -171.60709     -170.21988      4.2330178      0             -10681.868     -10847.854     -10830.582     -80.765683      3.6075541      48.609234      58.32899       194.97469      0.8476       
       138   599.34965      1172.8518      17.480242      1.3872059     -171.97326     -170.58605      4.2374816      0             -10681.521     -10847.87      -10830.389     -80.044551      3.6074004      48.660067      58.397095      194.51105      0.8476       
       139   605.24049      1186.8737      17.689225      1.3872034     -172.19645     -170.80925      4.2415821      0             -10681.281     -10847.848     -10830.159     -76.13097       3.6072497      48.708318      58.461701      193.80678      0.8476       
       140   611.71929      1200.9549      17.899092      1.3872066     -172.5752      -171.18799      4.2453183      0             -10680.92      -10847.862     -10829.963     -75.849465      3.607102       48.754807      58.524372      193.30301      0.8476       
       141   617.59599      1215.0928      18.109803      1.3872156     -172.79859     -171.41137      4.2486893      0             -10680.674     -10847.837     -10829.727     -72.095371      3.6069572      48.798677      58.583477      192.55756      0.8476       
       142   624.1498       1229.2852      18.321328      1.3872303     -173.18117     -171.79394      4.2516942      0             -10680.305     -10847.847     -10829.526     -72.059525      3.6068155      48.840787      58.640653      192.07697      0.8476       
       143   630.72475      1243.54        18.533783      1.3872507     -173.51361     -172.12636      4.2543324      0             -10679.972     -10847.844     -10829.31      -70.95184       3.6066768      48.880553      58.694805      191.44579      0.8476       
       144   636.54429      1257.8373      18.746871      1.3872769     -173.73372     -172.34644      4.256603       0             -10679.721     -10847.811     -10829.064     -67.364676      3.6065412      48.917821      58.745614      190.62314      0.8476       
       145   642.97488      1272.1811      18.960651      1.3873087     -174.12801     -172.7407       4.2585054      0             -10679.335     -10847.817     -10828.856     -67.843452      3.6064086      48.953361      58.794557      190.09911      0.8476       
       146   650.1584       1286.5859      19.175341      1.3873462     -174.53344     -173.1461       4.2600392      0             -10678.938     -10847.824     -10828.649     -68.651922      3.606279       48.986709      58.840781      189.332        0.8476       
       147   655.99682      1301.0248      19.390539      1.3873894     -174.70635     -173.31896      4.2612038      0             -10678.715     -10847.773     -10828.383     -64.239         3.6061526      49.017232      58.883041      188.44107      0.8476       
       148   662.54204      1315.4979      19.606247      1.3874382     -175.10458     -173.71714      4.2619988      0             -10678.317     -10847.772     -10828.166     -65.068938      3.6060292      49.046161      58.923685      187.97695      0.8476       
       149   668.82454      1330.0211      19.822702      1.3874927     -175.44828     -174.06078      4.2624239      0             -10677.958     -10847.757     -10827.934     -64.734893      3.6059089      49.072725      58.961269      187.36591      0.8476       
       150   675.98604      1344.5879      20.039806      1.3875528     -175.8576      -174.47005      4.2624789      0             -10677.546     -10847.754     -10827.714     -65.987186      3.6057917      49.097238      58.996403      186.47431      0.8476       
       151   681.76076      1359.1773      20.257247      1.3876184     -176.04177     -174.65415      4.2621634      0             -10677.303     -10847.695     -10827.438     -62.194034      3.6056776      49.11895       59.027616      185.54559      0.8476       
       152   688.34234      1373.791       20.475049      1.3876897     -176.4506      -175.06291      4.2614776      0             -10676.885     -10847.686     -10827.211     -63.635206      3.6055667      49.13905       59.057186      185.07708      0.8476       
       153   695.68625      1388.4508      20.693541      1.3877665     -176.88423     -175.49646      4.2604212      0             -10676.445     -10847.681     -10826.987     -65.727467      3.6054588      49.15698       59.084089      184.27478      0.8476       
       154   701.51212      1403.1273      20.91228       1.3878488     -177.07961     -175.69176      4.2589943      0             -10676.184     -10847.616     -10826.704     -62.478681      3.6053542      49.172068      59.107007      183.28138      0.8476       
       155   708.03806      1417.8196      21.131254      1.3879367     -177.50176     -176.11382      4.2571971      0             -10675.745     -10847.602     -10826.471     -64.517918      3.6052526      49.18554       59.128278      182.72313      0.8476       
       156   715.36293      1432.5504      21.350803      1.3880301     -177.94722     -176.55919      4.2550297      0             -10675.286     -10847.59      -10826.24      -67.179267      3.6051543      49.196832      59.146867      181.89048      0.8476       
       157   721.33604      1447.2889      21.570466      1.388129      -178.14874     -176.76061      4.2524924      0             -10675.01      -10847.519     -10825.948     -64.375307      3.6050591      49.205273      59.16145       180.82743      0.8476       
       158   728.58628      1462.0402      21.790321      1.3882334     -178.66669     -177.27846      4.2495855      0             -10674.488     -10847.517     -10825.727     -68.910067      3.6049671      49.212312      59.174814      180.0253       0.8476       
       159   735.0277       1476.8145      22.010517      1.3883432     -178.97085     -177.58251      4.2463094      0             -10674.128     -10847.464     -10825.453     -68.658064      3.6048783      49.21656       59.184318      179.43075      0.8476       
       160   742.27265      1491.5999      22.23088       1.3884584     -179.41867     -178.03022      4.2426646      0             -10673.653     -10847.44      -10825.209     -71.797075      3.6047927      49.218954      59.191737      178.47934      0.8476       
       161   748.18347      1506.3811      22.451179      1.3885791     -179.63614     -178.24756      4.2386516      0             -10673.35      -10847.359     -10824.908     -69.788778      3.6047103      49.218541      59.195228      177.39182      0.8476       
       162   755.61476      1521.164       22.671504      1.3887051     -180.17079     -178.78208      4.2342711      0             -10672.8       -10847.348     -10824.677     -75.143624      3.6046312      49.216711      59.197481      176.51853      0.8476       
       163   761.94926      1535.9574      22.891987      1.3888366     -180.4849      -179.09606      4.2295237      0             -10672.417     -10847.284     -10824.392     -75.565187      3.6045553      49.212077      59.195851      175.85928      0.8476       
       164   769.33501      1550.7497      23.112451      1.3889733     -180.95288     -179.56391      4.2244102      0             -10671.911     -10847.251     -10824.138     -79.619104      3.6044826      49.205607      59.192174      174.84076      0.8476       
       165   775.89825      1565.5368      23.332839      1.3891155     -181.27746     -179.88834      4.2189315      0             -10671.512     -10847.181     -10823.849     -80.513028      3.6044132      49.196544      59.184999      174.01305      0.8476       
       166   783.31831      1580.3148      23.553091      1.3892629     -181.74734     -180.35807      4.2130885      0             -10670.997     -10847.142     -10823.589     -84.84846       3.604347       49.185621      59.175732      172.93369      0.8476       
       167   790.63618      1595.0884      23.773278      1.3894156     -182.15639     -180.76697      4.2068821      0             -10670.525     -10847.085     -10823.311     -87.91057       3.6042841      49.172303      59.163367      171.97374      0.8476       
       168   797.50373      1609.8379      23.993104      1.3895736     -182.48352     -181.09394      4.2003134      0             -10670.111     -10847.004     -10823.011     -89.230725      3.6042245      49.156565      59.147813      171.02289      0.8476       
       169   805.22935      1624.5666      24.212622      1.3897368     -182.95884     -181.5691       4.1933836      0             -10669.578     -10846.954     -10822.742     -94.065742      3.6041682      49.13897       59.130173      169.95959      0.8476       
       170   812.58957      1639.2813      24.431932      1.3899052     -183.38691     -181.99701      4.1860938      0             -10669.079     -10846.89      -10822.458     -97.944023      3.6041151      49.119013      59.109503      168.92678      0.8476       
       171   819.87058      1653.97        24.650852      1.3900788     -183.79941     -182.40934      4.1784453      0             -10668.587     -10846.818     -10822.167     -101.59752      3.6040654      49.096791      59.085962      167.87835      0.8476       
       172   827.28456      1668.6279      24.869314      1.3902576     -184.22522     -182.83496      4.1704395      0             -10668.08      -10846.744     -10821.875     -105.68938      3.604019       49.072376      59.059687      166.78721      0.8476       
       173   834.96706      1683.2517      25.087269      1.3904416     -184.64906     -183.25862      4.1620777      0             -10667.57      -10846.666     -10821.579     -109.8724       3.6039759      49.045728      59.030606      165.69407      0.8476       
       174   842.47115      1697.8377      25.304658      1.3906306     -185.08111     -183.69048      4.1533615      0             -10667.049     -10846.586     -10821.281     -114.38193      3.6039362      49.016874      58.998769      164.56508      0.8476       
       175   850.12774      1712.3819      25.521426      1.3908248     -185.51441     -184.12358      4.1442924      0             -10666.522     -10846.501     -10820.98      -119.0612       3.6038998      48.985796      58.964143      163.43041      0.8476       
       176   857.59937      1726.8806      25.737516      1.391024      -185.9556      -184.56457      4.134872       0             -10665.985     -10846.414     -10820.677     -124.06437      3.6038667      48.952511      58.92676       162.26053      0.8476       
       177   865.16686      1741.3299      25.952868      1.3912282     -186.39796     -185.00673      4.1251021      0             -10665.441     -10846.323     -10820.37      -129.24032      3.603837       48.917003      58.886591      161.0805       0.8476       
       178   872.62774      1755.7255      26.167421      1.3914375     -186.84752     -185.45608      4.1149843      0             -10664.888     -10846.229     -10820.061     -134.72973      3.6038107      48.879288      58.843664      159.86726      0.8476       
       179   879.86684      1770.0635      26.381115      1.3916517     -187.29901     -185.90736      4.1045206      0             -10664.328     -10846.13      -10819.749     -140.4144       3.6037877      48.839355      58.797957      158.64111      0.8476       
       180   887.40215      1784.3396      26.593887      1.3918709     -187.75723     -186.36536      4.0937128      0             -10663.757     -10846.029     -10819.435     -146.40699      3.6037682      48.797215      58.749493      157.38198      0.8476       
       181   894.88042      1798.5495      26.805673      1.392095      -188.21778     -186.82569      4.0825628      0             -10663.18      -10845.923     -10819.117     -152.60939      3.603752       48.752861      58.698254      156.1083       0.8476       
       182   902.28788      1812.689       27.016408      1.392324      -188.68487     -187.29254      4.0710728      0             -10662.592     -10845.813     -10818.797     -159.12063      3.6037392      48.706303      58.644262      154.80128      0.8476       
       183   909.44086      1826.7536      27.226028      1.3925578     -189.15452     -187.76197      4.0592449      0             -10661.997     -10845.7       -10818.474     -165.85292      3.6037298      48.657533      58.587499      153.47812      0.8476       
       184   916.53744      1840.7389      27.434465      1.3927965     -189.6306      -188.2378       4.0470811      0             -10661.392     -10845.582     -10818.148     -172.89704      3.6037238      48.606562      58.527986      152.1212       0.8476       
       185   924.06231      1854.6402      27.641651      1.39304       -190.10945     -188.71641      4.0345838      0             -10660.779     -10845.46      -10817.819     -180.1726       3.6037213      48.553384      58.465709      150.74656      0.8476       
       186   931.32977      1868.453       27.847518      1.3932882     -190.59465     -189.20136      4.0217553      0             -10660.155     -10845.335     -10817.487     -187.76415      3.6037221      48.498009      58.400686      149.33766      0.8476       
       187   938.58724      1882.1726      28.051995      1.3935412     -191.08279     -189.68925      4.0085978      0             -10659.524     -10845.204     -10817.152     -195.59691      3.6037264      48.44043       58.332904      147.90949      0.8476       
       188   945.75068      1895.7942      28.255011      1.3937988     -191.57723     -190.18343      3.995114       0             -10658.882     -10845.07      -10816.815     -203.75071      3.6037342      48.380657      58.262381      146.44647      0.8476       
       189   952.94726      1909.3128      28.456494      1.3940612     -192.07476     -190.6807       3.9813062      0             -10658.231     -10844.931     -10816.474     -212.15518      3.6037454      48.318686      58.189105      144.96265      0.8476       
       190   960.37016      1922.7237      28.656371      1.3943281     -192.57857     -191.18424      3.967177       0             -10657.57      -10844.787     -10816.131     -220.88636      3.60376        48.254525      58.113095      143.44332      0.8476       
       191   967.94799      1936.0218      28.854566      1.3945996     -193.08559     -191.69099      3.952729       0             -10656.9       -10844.639     -10815.784     -229.8775       3.6037782      48.188171      58.034339      141.90169      0.8476       
       192   975.42864      1949.202       29.051005      1.3948757     -193.59888     -192.20401      3.9379651      0             -10656.22      -10844.486     -10815.435     -239.20149      3.6037997      48.119632      57.952853      140.3238       0.8476       
       193   982.91733      1962.2592      29.24561       1.3951563     -194.11551     -192.72035      3.9228878      0             -10655.531     -10844.328     -10815.082     -248.79463      3.6038248      48.048905      57.86863       138.72211      0.8476       
       194   990.24358      1975.1882      29.438304      1.3954414     -194.6384      -193.24295      3.9075         0             -10654.83      -10844.165     -10814.727     -258.72708      3.6038534      47.975998      57.781684      137.08332      0.8476       
       195   997.6567       1987.9836      29.629007      1.3957309     -195.16473     -193.769        3.8918047      0             -10654.12      -10843.998     -10814.369     -268.93792      3.6038854      47.900909      57.692007      135.41924      0.8476       
       196   1004.9549      2000.64        29.817639      1.3960248     -195.69731     -194.30129      3.8758046      0             -10653.399     -10843.825     -10814.007     -279.49489      3.6039209      47.823646      57.599615      133.71714      0.8476       
       197   1012.0873      2013.1521      30.004119      1.396323      -196.23346     -194.83714      3.859503       0             -10652.669     -10843.647     -10813.643     -290.33968      3.60396        47.744207      57.504501      131.98835      0.8476       
       198   1019.3899      2025.5142      30.188365      1.3966256     -196.77586     -195.37923      3.8429027      0             -10651.927     -10843.464     -10813.275     -301.53755      3.6040025      47.662601      57.406679      130.22073      0.8476       
       199   1026.7376      2037.7207      30.370292      1.3969324     -197.32192     -195.92499      3.8260069      0             -10651.176     -10843.275     -10812.905     -313.03279      3.6040486      47.578824      57.306144      128.42469      0.8476       
       200   1034.1242      2049.7661      30.549816      1.3972434     -197.87424     -196.477        3.8088189      0             -10650.413     -10843.081     -10812.531     -324.88825      3.6040982      47.492887      57.202911      126.58874      0.8476       
       201   1041.3779      2061.6444      30.726852      1.3975587     -198.43031     -197.03276      3.7913417      0             -10649.64      -10842.881     -10812.154     -337.0506       3.6041513      47.404787      57.096972      124.72303      0.8476       
       202   1048.7016      2073.3499      30.901312      1.397878      -198.99264     -197.59476      3.7735788      0             -10648.855     -10842.676     -10811.775     -349.58046      3.6042079      47.314533      56.988344      122.81625      0.8476       
       203   1055.9611      2084.8767      31.073108      1.3982015     -199.55881     -198.16061      3.7555335      0             -10648.06      -10842.465     -10811.392     -362.42675      3.6042681      47.222123      56.877021      120.87819      0.8476       
       204   1063.3494      2096.2188      31.24215       1.398529      -200.13123     -198.7327       3.7372092      0             -10647.252     -10842.248     -10811.006     -375.64812      3.6043318      47.127567      56.763018      118.8979       0.8476       
       205   1070.4739      2107.3701      31.40835       1.3988605     -200.7076      -199.30874      3.7186093      0             -10646.435     -10842.025     -10810.617     -389.19574      3.6043991      47.030863      56.646331      116.88486      0.8476       
       206   1077.8016      2118.3246      31.571616      1.3991959     -201.29021     -199.89101      3.6997374      0             -10645.605     -10841.796     -10810.224     -403.12622      3.6044699      46.932021      56.526973      114.8284       0.8476       
       207   1085.0476      2129.0759      31.731855      1.3995352     -201.87686     -200.47732      3.680597       0             -10644.764     -10841.561     -10809.829     -417.39291      3.6045443      46.831039      56.404942      112.73775      0.8476       
       208   1092.379       2139.618       31.888974      1.3998784     -202.46975     -201.06987      3.6611918      0             -10643.911     -10841.32      -10809.431     -432.05029      3.6046222      46.727926      56.280251      110.60244      0.8476       
       209   1099.5077      2149.9443      32.042878      1.4002253     -203.06676     -201.66654      3.6415255      0             -10643.047     -10841.072     -10809.029     -447.0539       3.6047037      46.622683      56.152897      108.43149      0.8476       
       210   1106.8414      2160.0487      32.193474      1.400576      -203.67001     -202.26944      3.6216017      0             -10642.17      -10840.818     -10808.624     -462.45616      3.6047888      46.515318      56.022895      106.2146       0.8476       
       211   1114.1039      2169.9245      32.340664      1.4009304     -204.27747     -202.87654      3.6014243      0             -10641.282     -10840.557     -10808.217     -478.21474      3.6048775      46.405831      55.890243      103.96065      0.8476       
       212   1121.4014      2179.5653      32.484351      1.4012884     -204.89115     -203.48987      3.5809971      0             -10640.381     -10840.29      -10807.806     -494.38005      3.6049698      46.294231      55.754953      101.65941      0.8476       
       213   1128.6113      2188.9646      32.624439      1.40165       -205.50912     -204.10747      3.5603239      0             -10639.469     -10840.016     -10807.391     -510.91184      3.6050656      46.180519      55.617025      99.319677      0.8476       
       214   1136.1959      2198.1157      32.760827      1.402015      -206.13331     -204.7313       3.5394087      0             -10638.543     -10839.735     -10806.974     -527.85852      3.6051651      46.064704      55.476473      96.931266      0.8476       
       215   1143.6157      2207.0119      32.893416      1.4023836     -206.76186     -205.35947      3.5182555      0             -10637.606     -10839.447     -10806.554     -545.18186      3.6052681      45.946786      55.333295      94.502937      0.8476       
       216   1150.963       2215.6465      33.022107      1.4027555     -207.39661     -205.99385      3.4968684      0             -10636.655     -10839.152     -10806.13      -562.9283       3.6053748      45.826775      55.187505      92.024444      0.8476       
       217   1158.3056      2224.0128      33.146799      1.4031308     -208.03581     -206.63268      3.4752513      0             -10635.693     -10838.85      -10805.704     -581.06199      3.605485       45.704672      55.039103      89.505002      0.8476       
       218   1165.5327      2232.1039      33.267389      1.4035093     -208.68117     -207.27766      3.4534084      0             -10634.717     -10838.541     -10805.274     -599.62656      3.6055989      45.580485      54.888102      86.933964      0.8476       
       219   1173.0643      2239.913       33.383776      1.403891      -209.331       -207.92711      3.4313438      0             -10633.729     -10838.225     -10804.841     -618.58758      3.6057164      45.454217      54.734502      84.319979      0.8476       
       220   1180.5288      2247.4332      33.495857      1.4042759     -209.98703     -208.58275      3.4090618      0             -10632.727     -10837.901     -10804.405     -637.98905      3.6058375      45.325877      54.578318      81.652893      0.8476       
       221   1188.0276      2254.6576      33.60353       1.4046639     -210.64759     -209.24293      3.3865667      0             -10631.713     -10837.569     -10803.965     -657.79709      3.6059622      45.195466      54.419549      78.941983      0.8476       
       222   1195.5065      2261.5792      33.70669       1.4050548     -211.31429     -209.90923      3.3638627      0             -10630.685     -10837.23      -10803.523     -678.05296      3.6060906      45.062994      54.25821       76.1766        0.8476       
       223   1202.8717      2268.1911      33.805234      1.4054488     -211.98557     -210.58012      3.3409541      0             -10629.644     -10836.883     -10803.078     -698.72563      3.6062225      44.928463      54.094301      73.366046      0.8476       
       224   1210.9169      2274.4952      33.899191      1.4058455     -212.74363     -211.33779      3.3178453      0             -10628.527     -10836.547     -10802.648     -721.69208      3.6063582      44.792012      53.928138      70.310379      0.8476       
       225   1218.3242      2280.4745      33.988306      1.4062451     -213.35253     -211.94629      3.2945408      0             -10627.517     -10836.169     -10802.181     -741.57083      3.6064974      44.653245      53.758841      67.507177      0.8476       
       226   1226.4183      2286.1232      34.072494      1.4066474     -214.11817     -212.71152      3.271045       0             -10626.375     -10835.815     -10801.743     -765.35715      3.6066403      44.512713      53.587571      64.412898      0.8476       
       227   1233.7992      2291.434       34.151647      1.4070524     -214.73429     -213.32724      3.2473624      0             -10625.34      -10835.42      -10801.269     -786.05603      3.6067868      44.369874      53.413185      61.515555      0.8476       
       228   1241.9511      2296.3999      34.22566       1.4074599     -215.50846     -214.101        3.2234975      0             -10624.172     -10835.05      -10800.824     -810.70159      3.606937       44.225279      53.236841      58.330945      0.8476       
       229   1249.385       2301.014       34.294428      1.4078699     -216.1343      -214.72643      3.1994549      0             -10623.111     -10834.638     -10800.343     -832.29549      3.6070909      44.078395      53.057408      55.322606      0.8476       
       230   1257.5367      2305.2697      34.357855      1.4082824     -216.92466     -215.51638      3.1752392      0             -10621.911     -10834.252     -10799.894     -857.99263      3.6072484      43.929772      52.876051      51.994212      0.8476       
       231   1264.8745      2309.1596      34.41583       1.4086972     -217.55719     -216.1485       3.150855       0             -10620.825     -10833.822     -10799.407     -880.43001      3.6074095      43.778861      52.691592      48.886488      0.8476       
       232   1272.8346      2312.6768      34.468251      1.4091142     -218.35598     -216.94686      3.1263071      0             -10619.598     -10833.419     -10798.951     -907.01907      3.6075743      43.626225      52.505227      46.193932      0.8476       
       233   1280.0418      2315.815       34.515023      1.4095334     -219.00329     -217.59376      3.1016001      0             -10618.481     -10832.973     -10798.458     -930.50191      3.6077428      43.471328      52.315806      45.862448      0.8476       
       234   1287.8203      2318.5676      34.556048      1.4099548     -219.81574     -218.40578      3.0767387      0             -10617.224     -10832.553     -10797.997     -958.119        3.6079149      43.314711      52.124485      45.534358      0.8476       
       235   1294.9847      2320.9272      34.591216      1.4103781     -220.46954     -219.05916      3.0517278      0             -10616.082     -10832.089     -10797.498     -982.47484      3.6080907      43.155842      51.930108      45.197621      0.8476       
       236   1302.822       2322.887       34.620425      1.4108034     -221.28889     -219.87808      3.026572       0             -10614.799     -10831.651     -10797.03      -1010.9832      3.6082702      42.995265      51.733845      44.864272      0.8476       
       237   1309.9067      2324.441       34.643585      1.4112305     -221.95703     -220.5458       3.0012764      0             -10613.626     -10831.17      -10796.527     -1036.4084      3.6084533      42.832465      51.534575      44.522661      0.8476       
       238   1317.8118      2325.5827      34.660601      1.4116593     -222.79032     -221.37866      2.9758456      0             -10612.312     -10830.715     -10796.054     -1065.985       3.6086401      42.667964      51.33343       44.184368      0.8476       
       239   1325.109       2326.3052      34.67137       1.4120898     -223.46516     -222.05307      2.9502846      0             -10611.113     -10830.215     -10795.544     -1092.321       3.6088306      42.50125       51.129278      43.837683      0.8476       
       240   1333.2499      2326.6023      34.675798      1.4125218     -224.30648     -222.89396      2.9245984      0             -10609.772     -10829.741     -10795.066     -1122.8471      3.6090248      42.332847      50.923268      43.494339      0.8476       
       241   1340.4633      2326.4681      34.673798      1.4129554     -224.99413     -223.58118      2.8987918      0             -10608.542     -10829.224     -10794.551     -1150.2495      3.6092226      42.162259      50.714294      43.142892      0.8476       
       242   1348.8089      2325.8967      34.665282      1.4133902     -225.84824     -224.43485      2.8728697      0             -10607.171     -10828.733     -10794.068     -1181.8488      3.6094241      41.989991      50.503476      42.794735      0.8476       
       243   1356.2929      2324.8819      34.650156      1.4138264     -226.54358     -225.12975      2.8468373      0             -10605.914     -10828.197     -10793.547     -1210.2151      3.6096293      41.815551      50.289701      42.438427      0.8476       
       244   1364.309       2323.4177      34.628334      1.4142637     -227.4055      -225.99123      2.8206994      0             -10604.516     -10827.686     -10793.058     -1242.7887      3.6098382      41.639444      50.074096      42.08539       0.8476       
       245   1371.5984      2321.499       34.599738      1.4147022     -228.11304     -226.69833      2.7944612      0             -10603.229     -10827.133     -10792.533     -1272.2365      3.6100508      41.461191      49.855576      41.724475      0.8476       
       246   1379.7237      2319.1205      34.564288      1.4151415     -228.98729     -227.57215      2.7681276      0             -10601.8       -10826.604     -10792.04      -1305.901       3.610267       41.281281      49.635241      41.366789      0.8476       
       247   1387.1756      2316.2767      34.521904      1.4155818     -229.70252     -228.28693      2.7417038      0             -10600.486     -10826.031     -10791.509     -1336.34        3.6104869      41.09924       49.412002      41.001199      0.8476       
       248   1395.3964      2312.9625      34.47251       1.4160228     -230.58468     -229.16866      2.7151948      0             -10599.03      -10825.484     -10791.011     -1371.0072      3.6107105      41.433028      49.186964      44.887652      0.8476       
       249   1402.8897      2309.1735      34.416038      1.4164645     -231.31132     -229.89485      2.6886057      0             -10597.686     -10824.893     -10790.476     -1402.5347      3.6109378      42.565253      48.959061      49.409316      0.8476       
       250   1411.0939      2304.9052      34.352423      1.4169067     -232.20505     -230.78814      2.6619416      0             -10596.201     -10824.327     -10789.974     -1438.2992      3.6111688      43.640765      48.729375      53.57215       0.8476       
       251   1418.5357      2300.1531      34.281598      1.4173493     -232.93936     -231.52202      2.6352077      0             -10594.83      -10823.717     -10789.435     -1470.8405      3.6114035      44.80389       48.49684       58.221714      0.8476       
       252   1426.7947      2294.9132      34.203501      1.4177923     -233.84071     -232.42292      2.6084092      0             -10593.318     -10823.132     -10788.929     -1507.6222      3.6116418      45.909737      48.262536      62.509541      0.8476       
       253   1434.2802      2289.1818      34.118081      1.4182354     -234.58566     -233.16742      2.5815511      0             -10591.918     -10822.504     -10788.385     -1541.254       3.6118839      47.102317      48.025422      67.27764       0.8476       
       254   1441.7983      2282.9471      34.025159      1.4186787     -235.4195      -234.00082      2.5546388      0             -10590.437     -10821.883     -10787.858     -1577.3504      3.6121296      48.267278      47.786308      71.857393      0.8476       
       255   1449.2601      2276.2169      33.924851      1.4191219     -236.25189     -234.83277      2.5276772      0             -10588.947     -10821.252     -10787.327     -1613.8401      3.612379       49.454193      48.401662      76.538097      0.8476       
       256   1456.7507      2268.9852      33.81707       1.419565      -237.08572     -235.66615      2.5006718      0             -10587.447     -10820.612     -10786.795     -1650.7931      3.6126321      50.657946      49.912609      81.289878      0.8476       
       257   1464.2169      2261.2494      33.701774      1.4200079     -237.92474     -236.50473      2.4736276      0             -10585.932     -10819.963     -10786.261     -1688.2968      3.6128889      51.875994      51.440386      86.097603      0.8476       
       258   1471.7307      2253.0082      33.578947      1.4204503     -238.77334     -237.35289      2.4465499      0             -10584.4       -10819.306     -10785.727     -1726.4515      3.6131494      53.106841      52.982654      90.952179      0.8476       
       259   1479.244       2244.2602      33.448567      1.4208923     -239.62352     -238.20263      2.4194439      0             -10582.857     -10818.64      -10785.192     -1765.0752      3.6134136      54.353825      54.544625      95.873297      0.8476       
       260   1486.7358      2235.0037      33.310607      1.4213336     -240.47773     -239.05639      2.3923148      0             -10581.301     -10817.965     -10784.654     -1804.2244      3.6136814      55.615559      56.124092      100.85276      0.8476       
       261   1494.2738      2225.2379      33.165058      1.4217741     -241.33668     -239.91491      2.3651679      0             -10579.731     -10817.281     -10784.116     -1843.9156      3.6139529      56.891533      57.720138      105.88707      0.8476       
       262   1501.8198      2214.9625      33.011912      1.4222138     -242.19912     -240.77691      2.3380084      0             -10578.15      -10816.589     -10783.577     -1884.1199      3.6142281      58.182311      59.333713      110.97988      0.8476       
       263   1509.3008      2204.1773      32.851169      1.4226524     -243.06526     -241.6426       2.3108416      0             -10576.556     -10815.888     -10783.036     -1924.8417      3.614507       59.487454      60.963995      116.12809      0.8476       
       264   1516.9123      2192.8827      32.682835      1.4230899     -243.93493     -242.51184      2.2836727      0             -10574.95      -10815.178     -10782.495     -1966.0766      3.6147896      60.806978      62.611082      121.33217      0.8476       
       265   1524.4612      2181.0798      32.506922      1.4235261     -244.80791     -243.38439      2.256507       0             -10573.332     -10814.46      -10781.953     -2007.8185      3.6150758      62.140638      64.274463      126.5902       0.8476       
       266   1531.8313      2168.7697      32.323452      1.4239609     -245.68422     -244.26026      2.2293496      0             -10571.703     -10813.734     -10781.41      -2050.0662      3.6153657      63.488327      65.954058      131.902        0.8476       
       267   1539.1588      2155.9544      32.132452      1.4243942     -246.56347     -245.13907      2.2022059      0             -10570.062     -10812.999     -10780.867     -2092.809       3.6156593      64.84984       67.649426      137.26592      0.8476       
       268   1546.5242      2142.6362      31.933958      1.4248257     -247.44584     -246.02102      2.1750811      0             -10568.411     -10812.257     -10780.323     -2136.0495      3.6159566      66.224941      69.360293      142.68107      0.8476       
       269   1553.7056      2128.8182      31.728013      1.4252554     -248.33079     -246.90554      2.1479804      0             -10566.75      -10811.507     -10779.779     -2179.7725      3.6162576      67.613464      71.086287      148.14608      0.8476       
       270   1561.2396      2114.5036      31.514668      1.4256832     -249.21864     -247.79296      2.1209092      0             -10565.078     -10810.75      -10779.235     -2223.9824      3.6165622      69.015069      72.826987      153.65952      0.8476       
       271   1568.5653      2099.6967      31.293985      1.4261088     -250.10873     -248.68262      2.0938725      0             -10563.396     -10809.985     -10778.691     -2268.661       3.6168704      70.429595      74.582038      159.22012      0.8476       
       272   1575.8674      2084.402       31.066032      1.4265322     -251.00145     -249.57492      2.0668756      0             -10561.705     -10809.213     -10778.147     -2313.8137      3.6171824      71.856625      76.350907      164.82604      0.8476       
       273   1583.0125      2068.6246      30.830886      1.4269532     -251.89607     -250.46912      2.0399239      0             -10560.005     -10808.434     -10777.603     -2359.4197      3.617498       73.295979      78.133221      170.47598      0.8476       
       274   1590.3835      2052.3705      30.588634      1.4273716     -252.79304     -251.36567      2.0130224      0             -10558.296     -10807.648     -10777.06      -2405.4847      3.6178173      74.747171      79.928357      176.16778      0.8476       
       275   1597.8239      2035.6461      30.339372      1.4277873     -253.69158     -252.2638       1.9861763      0             -10556.579     -10806.856     -10776.517     -2451.9864      3.6181402      76.209985      81.7359        181.89999      0.8476       
       276   1605.204       2018.4585      30.083206      1.4282002     -254.59215     -253.16395      1.959391       0             -10554.854     -10806.058     -10775.975     -2498.9294      3.6184668      77.683886      83.555162      187.67025      0.8476       
       277   1612.2909      2000.8153      29.820251      1.4286102     -255.49395     -254.06534      1.9326715      0             -10553.122     -10805.254     -10775.434     -2546.2902      3.618797       79.168618      85.38568       193.47695      0.8476       
       278   1619.6879      1982.7249      29.550632      1.4290169     -256.39741     -254.9684       1.906023       0             -10551.383     -10804.445     -10774.894     -2594.0722      3.6191309      80.663603      87.226716      199.31757      0.8476       
       279   1627.0956      1964.1965      29.274483      1.4294204     -257.30174     -255.87232      1.8794508      0             -10549.637     -10803.63      -10774.356     -2642.2505      3.6194684      82.168542      89.077754      205.19032      0.8476       
       280   1634.5218      1945.2396      28.991949      1.4298205     -258.20734     -256.77752      1.8529598      0             -10547.886     -10802.811     -10773.819     -2690.8276      3.6198095      83.68281       90.937994      211.09245      0.8476       
       281   1641.7006      1925.8647      28.703184      1.4302169     -259.11343     -257.68322      1.8265554      0             -10546.13      -10801.986     -10773.283     -2739.7778      3.6201543      85.206044      92.806842      217.02194      0.8476       
       282   1649.0539      1906.0829      28.408355      1.4306096     -260.02042     -258.58981      1.8002425      0             -10544.368     -10801.158     -10772.749     -2789.1022      3.6205028      86.737572      94.683442      222.97587      0.8476       
       283   1656.4588      1885.9058      28.107635      1.4309984     -260.9275      -259.4965       1.7740263      0             -10542.603     -10800.326     -10772.218     -2838.7741      3.6208548      88.27699       96.567148      228.95202      0.8476       
       284   1663.8259      1865.3461      27.801212      1.4313832     -261.83503     -260.40364      1.7479118      0             -10540.834     -10799.49      -10771.689     -2888.7926      3.6212105      89.823589      98.457068      234.94736      0.8476       
       285   1671.0993      1844.4168      27.48928       1.4317637     -262.74222     -261.31045      1.7219042      0             -10539.062     -10798.651     -10771.162     -2939.1301      3.6215698      91.37691       100.35249      240.95948      0.8476       
       286   1678.3995      1823.1317      27.172047      1.4321399     -263.6494      -262.21726      1.6960085      0             -10537.288     -10797.809     -10770.637     -2989.7844      3.6219328      92.936206      102.25246      246.98518      0.8476       
       287   1685.7642      1801.5055      26.849729      1.4325115     -264.55579     -263.12328      1.6702296      0             -10535.513     -10796.966     -10770.116     -3040.7269      3.6222993      94.500958      104.15622      253.02181      0.8476       
       288   1693.092       1779.5533      26.522552      1.4328785     -265.4617      -264.02882      1.6445726      0             -10533.736     -10796.12      -10769.598     -3091.954       3.6226695      96.070377      106.06276      259.06603      0.8476       
       289   1699.49        1757.2801      26.190591      1.4332406     -266.2722      -264.83896      1.6190425      0             -10532.031     -10795.251     -10769.06      -3141.292       3.6230432      97.684771      108.03435      265.35317      0.8476       
       290   1706.8452      1734.7138      25.854262      1.4335977     -267.26855     -265.83495      1.5936441      0             -10530.182     -10794.423     -10768.569     -3195.1497      3.6234206      99.219626      109.87935      271.15908      0.8476       
       291   1713.4828      1711.872       25.513826      1.4339496     -268.07915     -266.6452       1.5683825      0             -10528.478     -10793.554     -10768.041     -3245.0215      3.6238016      100.83943      111.85064      277.44161      0.8476       
       292   1720.8249      1688.7719      25.169541      1.4342963     -269.06553     -267.63124      1.5432626      0             -10526.638     -10792.726     -10767.556     -3299.1583      3.6241861      102.38186      113.69926      283.2584       0.8476       
       293   1727.5684      1665.4324      24.821688      1.4346374     -269.87533     -268.4407       1.5182891      0             -10524.936     -10791.858     -10767.036     -3349.4927      3.6245742      104.00318      115.6655       289.52         0.8476       
       294   1734.9124      1641.8736      24.470566      1.4349729     -270.8678      -269.43282      1.493467       0             -10523.094     -10791.034     -10766.563     -3404.2218      3.6249659      105.54335      117.50395      295.29709      0.8476       
       295   1741.5857      1618.1148      24.116465      1.4353027     -271.66896     -270.23366      1.4688011      0             -10521.403     -10790.168     -10766.051     -3454.7843      3.6253612      107.16586      119.46534      301.54015      0.8476       
       296   1748.9429      1594.1762      23.759682      1.4356264     -272.64722     -271.2116       1.4442961      0             -10519.578     -10789.346     -10765.586     -3509.5861      3.6257601      108.70704      121.29851      307.29795      0.8476       
       297   1755.0258      1570.0639      23.400311      1.4359441     -273.31745     -271.8815       1.4199569      0             -10517.994     -10788.455     -10765.055     -3557.5339      3.6261625      110.38444      123.33578      313.82706      0.8476       
       298   1761.753       1545.805       23.038756      1.4362555     -274.30526     -272.869        1.3957882      0             -10516.166     -10787.639     -10764.601     -3612.9085      3.6265684      111.90244      125.12934      319.43869      0.8476       
       299   1768.5728      1521.4487      22.675748      1.4365605     -275.20165     -273.76509      1.3717945      0             -10514.418     -10786.811     -10764.135     -3666.327       3.626978       113.46553      126.9871       325.29452      0.8476       
       300   1775.484       1497.0028      22.311404      1.4368589     -276.07417     -274.63731      1.3479807      0             -10512.693     -10785.983     -10763.671     -3719.3278      3.627391       115.03321      128.85097      331.17649      0.8476       
       301   1782.4403      1472.4889      21.946049      1.4371505     -276.95449     -275.51734      1.3243513      0             -10510.969     -10785.162     -10763.216     -3772.6191      3.6278076      116.58898      130.69507      336.98733      0.8476       
       302   1789.2984      1447.9312      21.580039      1.4374353     -277.81803     -276.38059      1.300911       0             -10509.264     -10784.344     -10762.764     -3825.6223      3.6282277      118.14283      132.53441      342.78441      0.8476       
       303   1796.1743      1423.3535      21.213732      1.437713      -278.68517     -277.24746      1.2776642      0             -10507.564     -10783.534     -10762.32      -3878.7863      3.6286514      119.6847       134.35409      348.51155      0.8476       
       304   1802.3656      1398.7688      20.847321      1.4379836     -279.42231     -277.98432      1.2546156      0             -10505.971     -10782.701     -10761.853     -3929.0479      3.6290786      121.27335      136.24208      354.50143      0.8476       
       305   1809.1133      1374.2133      20.481344      1.4382468     -280.37821     -278.93997      1.2317695      0             -10504.219     -10781.927     -10761.446     -3984.3537      3.6295092      122.74824      137.96011      359.85549      0.8476       
       306   1815.6707      1349.7258      20.116382      1.4385025     -281.24041     -279.80191      1.2091305      0             -10502.551     -10781.144     -10761.028     -4037.5342      3.6299434      124.25601      139.72434      365.391        0.84798896   
       307   1821.4055      1325.3084      19.752464      1.4387505     -281.95204     -280.51329      1.1867029      0             -10501.007     -10780.334     -10760.581     -4087.288       3.6303811      125.81548      141.56623      371.22693      0.84859053   
       308   1828.2799      1300.9977      19.390136      1.4389908     -282.90364     -281.46465      1.1644912      0             -10499.291     -10779.591     -10760.201     -4142.5157      3.6308223      127.24773      143.21953      376.359        0.84955495   
       309   1834.1913      1276.8218      19.029816      1.4392231     -283.61261     -282.17338      1.1424995      0             -10497.772     -10778.803     -10759.773     -4192.1673      3.6312669      128.77452      145.01027      382.01814      0.85016111   
       310   1840.8495      1252.8076      18.671907      1.4394474     -284.56213     -283.12269      1.1207323      0             -10496.083     -10778.085     -10759.413     -4247.2673      3.631715       130.17358      146.61496      386.98507      0.85113017   
       311   1846.7559      1228.9813      18.316799      1.4396634     -285.25044     -283.81078      1.0991937      0             -10494.606     -10777.318     -10759.001     -4296.3288      3.6321666      131.67085      148.36278      392.50256      0.85171456   
       312   1853.4504      1205.3695      17.964888      1.4398711     -286.17824     -284.73837      1.077888       0             -10492.961     -10776.622     -10758.657     -4350.7775      3.6326217      133.03806      149.9208       397.31427      0.85265951   
       313   1859.331       1181.9997      17.616583      1.4400703     -286.85746     -285.41739      1.0568192      0             -10491.52      -10775.881     -10758.264     -4399.4382      3.6330802      134.49544      151.6113       402.63826      0.85324023   
       314   1865.9565      1158.8987      17.272285      1.4402608     -287.7687      -286.32844      1.0359916      0             -10489.919     -10775.211     -10757.939     -4453.2768      3.6335421      135.82442      153.11549      407.27118      0.8541699    
       315   1871.2421      1136.0822      16.932226      1.4404426     -288.30567     -286.86523      1.0154091      0             -10488.617     -10774.466     -10757.534     -4498.4246      3.6340075      137.30185      154.83624      412.73149      0.85455075   
       316   1877.2291      1113.5789      16.596837      1.4406155     -289.17581     -287.73519      0.99507584     0             -10487.076     -10773.816     -10757.219     -4551.0305      3.6344763      138.58469      156.27483      417.14481      0.85542797   
       317   1882.4645      1091.4267      16.266678      1.4407793     -289.8085      -288.36772      0.9749957      0             -10485.736     -10773.129     -10756.862     -4598.0264      3.6349485      139.96445      157.85173      422.08732      0.85596231   
       318   1888.382       1069.6525      15.942154      1.440934      -290.6958      -289.25487      0.95517262     0             -10484.222     -10772.521     -10756.579     -4650.6392      3.6354241      141.18965      159.2156       426.25272      0.85687728   
       319   1893.6047      1048.2823      15.623652      1.4410794     -291.30995     -289.86888      0.93561047     0             -10482.934     -10771.868     -10756.244     -4696.7884      3.6359031      142.52022      160.72681      430.98178      0.85739737   
       320   1899.5985      1027.3419      15.311555      1.4412154     -292.17248     -290.73126      0.91631307     0             -10481.479     -10771.294     -10755.982     -4748.3755      3.6363855      143.69601      162.02379      434.92913      0.85828813   
       321   1904.8412      1006.8574      15.006253      1.4413419     -292.77064     -291.32929      0.89728419     0             -10480.244     -10770.676     -10755.67      -4793.6629      3.6368713      144.96942      163.4582       439.40533      0.85879811   
       322   1910.8666      986.85486      14.708134      1.4414587     -293.62301     -292.18155      0.87852754     0             -10478.839     -10770.142     -10755.434     -4844.4851      3.6373604      146.08375      164.67422      443.08686      0.85968703   
       323   1916.0061      967.35922      14.41757       1.4415659     -294.19877     -292.75721      0.8600468      0             -10477.664     -10769.561     -10755.144     -4888.6914      3.6378529      147.29793      166.02972      447.30508      0.86017839   
       324   1921.9899      948.39447      14.134919      1.4416631     -295.01522     -293.57355      0.84184557     0             -10476.331     -10769.063     -10754.928     -4938.0882      3.6383487      148.35764      167.17271      450.75011      0.86102837   
       325   1927.2766      929.98526      13.860547      1.4417505     -295.57575     -294.13399      0.82392742     0             -10475.214     -10768.524     -10754.663     -4981.3079      3.6388479      149.50405      168.439        454.67541      0.86151232   
       326   1932.5472      912.14825      13.594703      1.4418277     -296.23977     -294.79795      0.80629584     0             -10474.041     -10768.032     -10754.438     -5026.5532      3.6393505      150.5588       169.57405      458.12254      0.86215373   
       327   1937.7739      894.91451      13.337851      1.4418949     -296.89128     -295.44939      0.78895429     0             -10472.903     -10767.563     -10754.225     -5071.1503      3.6398563      151.58124      170.67275      461.46263      0.86278541   
       328   1942.765       878.30514      13.090304      1.4419518     -297.536       -296.09405      0.77190617     0             -10471.796     -10767.118     -10754.028     -5115.2153      3.6403654      152.56594      171.72295      464.64482      0.86341534   
       329   1947.9687      862.34204      12.852389      1.4419983     -298.17243     -296.73043      0.75515482     0             -10470.721     -10766.696     -10753.844     -5158.6981      3.6408779      153.51212      172.72436      467.67         0.8640415    
       330   1953.2183      847.04602      12.624416      1.4420345     -298.79622     -297.35418      0.73870351     0             -10469.682     -10766.298     -10753.673     -5201.4844      3.6413936      154.42099      173.67823      470.54233      0.86465769   
       331   1958.4675      832.437        12.406683      1.4420601     -299.40824     -297.96618      0.72255547     0             -10468.68      -10765.923     -10753.516     -5243.5798      3.6419126      155.29083      174.58247      473.25494      0.86526535   
       332   1963.6288      818.53408      12.199473      1.4420752     -300.00667     -298.5646       0.70671387     0             -10467.714     -10765.572     -10753.373     -5284.9291      3.6424349      156.12155      175.43715      475.80862      0.86586197   
       333   1968.9901      805.35549      12.003059      1.4420796     -300.59407     -299.152        0.69118182     0             -10466.786     -10765.246     -10753.243     -5325.5774      3.6429605      156.91078      176.23955      478.19431      0.86645147   
       334   1974.0569      792.91838      11.817695      1.4420733     -301.16456     -299.72248      0.67596236     0             -10465.898     -10764.944     -10753.127     -5365.3778      3.6434892      157.66049      176.99239      480.42249      0.86702545   
       335   1979.2723      781.23906      11.643626      1.4420562     -301.72594     -300.28388      0.66105849     0             -10465.046     -10764.669     -10753.025     -5404.497       3.6440212      158.36585      177.68964      482.47191      0.86759543   
       336   1984.4967      770.33269      11.481077      1.4420283     -302.26821     -300.82618      0.64647314     0             -10464.237     -10764.417     -10752.936     -5442.6952      3.6445565      159.03087      178.33689      484.36381      0.86814705   
       337   1989.0827      760.20733      11.330168      1.4419895     -302.66456     -301.22257      0.63220918     0             -10463.564     -10764.154     -10752.824     -5477.0677      3.6450949      159.70596      179.01397      486.41465      0.86849657   
       338   1994.3778      750.88191      11.191182      1.4419397     -303.28752     -301.84558      0.61826941     0             -10462.755     -10763.983     -10752.791     -5516.1159      3.6456365      160.233        179.47563      487.6577       0.86918286   
       339   1998.9348      742.36886      11.064303      1.4418789     -303.6632      -302.22132      0.60465657     0             -10462.159     -10763.775     -10752.711     -5548.9985      3.6461813      160.81761      180.03908      489.34592      0.86952273   
       340   2004.1183      734.67957      10.949701      1.4418071     -304.27897     -302.83717      0.59137336     0             -10461.418     -10763.664     -10752.714     -5586.8468      3.6467293      161.24609      180.37904      490.19762      0.87021862   
       341   2008.6169      727.82351      10.847518      1.4417242     -304.62494     -303.18321      0.57842238     0             -10460.906     -10763.51      -10752.663     -5617.9992      3.6472805      161.73669      180.8285       491.52957      0.87053575   
       342   2014.0103      721.80911      10.757879      1.4416302     -305.20956     -303.76793      0.56580621     0             -10460.252     -10763.454     -10752.696     -5654.0707      3.6478348      162.07557      181.05839      492.03346      0.87120676   
       343   2018.6107      716.64351      10.680891      1.441525      -305.52774     -304.08621      0.55352732     0             -10459.822     -10763.355     -10752.674     -5683.5111      3.6483922      162.46715      181.38899      492.99464      0.87150414   
       344   2023.8983      712.33258      10.616641      1.4414087     -306.07417     -304.63277      0.54158815     0             -10459.26      -10763.351     -10752.734     -5717.6224      3.6489527      162.71822      181.51116      493.15954      0.8721404    
       345   2028.4341      708.88122      10.565201      1.4412811     -306.36955     -304.92827      0.52999106     0             -10458.91      -10763.308     -10752.743     -5745.4451      3.6495164      163.00621      181.71764      493.73243      0.87242553   
       346   2033.5265      706.29285      10.526624      1.4411424     -306.89068     -305.44954      0.51873834     0             -10458.432     -10763.363     -10752.836     -5777.8742      3.6500831      163.1593       181.72308      493.53322      0.87304631   
       347   2038.0231      704.56943      10.500938      1.4409924     -307.15272     -305.71172      0.50783224     0             -10458.17      -10763.374     -10752.873     -5803.8259      3.650653       163.34612      181.81018      493.73904      0.87330433   
       348   2043.218       703.71191      10.488158      1.4408312     -307.63577     -306.19493      0.4972749      0             -10457.785     -10763.483     -10752.994     -5834.2721      3.6512259      163.4084       181.70581      493.19665      0.87389121   
       349   2047.8144      703.72         10.488278      1.4406587     -307.87438     -306.43372      0.48706845     0             -10457.605     -10763.551     -10753.063     -5858.5736      3.6518018      163.4887       181.66668      493.01025      0.8741366    
       350   2053.0211      704.592        10.501275      1.4404751     -308.32879     -306.88832      0.47721489     0             -10457.306     -10763.717     -10753.216     -5887.2503      3.6523808      163.45239      181.44658      492.11083      0.8747038    
       351   2057.5783      706.32481      10.5271        1.4402802     -308.53595     -307.09567      0.46771621     0             -10457.213     -10763.84      -10753.313     -5909.7195      3.6529629      163.4279       181.28516      491.55052      0.87492515   
       352   2062.8109      708.91429      10.565694      1.4400741     -308.9502      -307.51012      0.45857428     0             -10457.008     -10764.059     -10753.494     -5936.3678      3.6535479      163.29986      180.95644      490.3166       0.8754559    
       353   2067.3136      712.35499      10.616975      1.4398568     -309.1337      -307.69384      0.44979095     0             -10456.996     -10764.24      -10753.623     -5957.1909      3.6541359      163.16699      180.66852      489.3672       0.8756645    
       354   2072.559       716.64017      10.680841      1.4396283     -309.51728     -308.07765      0.44136798     0             -10456.878     -10764.515     -10753.834     -5982.0397      3.6547269      162.94049      180.22613      487.78682      0.87617296   
       355   2077.0788      721.76175      10.757173      1.4393887     -309.67078     -308.23139      0.43330704     0             -10456.951     -10764.749     -10753.992     -6001.0869      3.6553209      162.70132      179.81566      486.46558      0.87635971   
       356   2082.3585      727.71072      10.845837      1.4391379     -310.01505     -308.57591      0.42560977     0             -10456.926     -10765.077     -10754.231     -6023.9567      3.6559178      162.38208      179.26581      484.55892      0.87683314   
       357   2086.8866      734.47668      10.946677      1.4388761     -310.14444     -308.70556      0.41827772     0             -10457.08      -10765.367     -10754.42      -6041.3839      3.6565177      162.03508      178.73116      482.85954      0.87700646   
       358   2092.1792      742.04816      11.059523      1.4386032     -310.45662     -309.01802      0.41131236     0             -10457.142     -10765.748     -10754.689     -6062.4646      3.6571205      161.61872      178.07114      480.62167      0.87745557   
       359   2096.6829      750.41236      11.184184      1.4383194     -310.55749     -309.11917      0.40471511     0             -10457.377     -10766.091     -10754.907     -6078.199       3.6577262      161.16599      177.41609      478.56002      0.87760898   
       360   2101.9217      759.55576      11.320457      1.4380246     -310.83119     -309.39317      0.39848731     0             -10457.529     -10766.524     -10755.203     -6097.3753      3.6583348      160.65745      176.65151      476.00954      0.87802413   
       361   2106.4164      769.46343      11.468122      1.4377188     -310.90795     -309.47023      0.39263024     0             -10457.842     -10766.919     -10755.451     -6111.5515      3.6589463      160.09908      175.87652      473.58664      0.87816381   
       362   2111.5989      780.11961      11.626942      1.4374022     -311.1487      -309.7113       0.38714508     0             -10458.079     -10767.403     -10755.776     -6128.9867      3.6595607      159.49598      175.00667      470.72448      0.87855311   
       363   2116.1478      791.50728      11.796664      1.4370749     -311.19847     -309.76139      0.38203298     0             -10458.47      -10767.849     -10756.053     -6141.5784      3.6601778      158.83433      174.11564      467.95582      0.87867462   
       364   2121.3815      803.6089       11.977027      1.4367368     -311.40198     -309.96525      0.37729498     0             -10458.793     -10768.381     -10756.404     -6157.2169      3.6607979      158.14095      173.14556      464.79896      0.87903138   
       365   2126.5246      816.40723      12.167774      1.436388      -311.5183      -310.08191      0.37293207     0             -10459.206     -10768.915     -10756.747     -6170.406       3.6614207      157.39496      172.13658      461.60036      0.87927325   
       366   2131.746       829.88131      12.368593      1.4360287     -311.60547     -310.16944      0.36894517     0             -10459.663     -10769.464     -10757.095     -6182.4856      3.6620463      156.59629      171.07315      458.25112      0.87948162   
       367   2136.9722      844.01043      12.579174      1.4356589     -311.6869      -310.25124      0.36533512     0             -10460.153     -10770.039     -10757.46      -6194.0041      3.6626747      155.75053      169.95706      454.74254      0.87969208   
       368   2142.2577      858.77339      12.799202      1.4352786     -311.74363     -310.30835      0.36210269     0             -10460.687     -10770.633     -10757.834     -6204.5419      3.6633059      154.85971      168.79263      451.09826      0.87987649   
       369   2147.5158      874.14833      13.028351      1.434888      -311.79037     -310.35548      0.35924858     0             -10461.255     -10771.251     -10758.223     -6214.4489      3.6639398      153.92455      167.57904      447.30719      0.8800565    
       370   2152.7836      890.11282      13.266286      1.4344872     -311.82106     -310.38657      0.35677341     0             -10461.86      -10771.89      -10758.623     -6223.6009      3.6645765      152.94413      166.31695      443.37801      0.88022318   
       371   2157.7955      906.6436       13.512662      1.4340762     -311.83803     -310.40395      0.35467773     0             -10462.501     -10772.55      -10759.037     -6232.0663      3.6652159      151.92004      165.00781      439.31306      0.88037978   
       372   2163.0216      923.71692      13.767123      1.4336551     -311.84083     -310.40717      0.35296203     0             -10463.176     -10773.231     -10759.464     -6239.8498      3.6658579      150.85251      163.65226      435.11582      0.88052554   
       373   2168.3006      941.30846      14.029309      1.433224      -311.82979     -310.39657      0.35162672     0             -10463.886     -10773.931     -10759.902     -6246.9751      3.6665027      149.74258      162.25166      430.79049      0.8806608    
       374   2174.2472      959.39385      14.298854      1.4327831     -311.84972     -310.41694      0.35067212     0             -10464.614     -10774.68      -10760.381     -6254.4814      3.6671501      148.58619      160.80384      426.32531      0.8808565    
       375   2179.5605      977.94606      14.575357      1.4323324     -311.76598     -310.33365      0.3500985      0             -10465.412     -10775.395     -10760.82      -6259.3092      3.6678002      147.3787       159.3065       421.75823      0.88090125   
       376   2185.4702      996.94075      14.858455      1.431872      -311.75164     -310.31977      0.34990605     0             -10466.205     -10776.175     -10761.316     -6265.4298      3.6684528      146.16207      157.78909      417.08029      0.88106375   
       377   2190.7522      1016.3519      15.14776       1.4314021     -311.64866     -310.21726      0.35009488     0             -10467.06      -10776.927     -10761.779     -6269.2476      3.6691081      144.87351      156.20626      412.26999      0.88109823   
       378   2196.7497      1036.1537      15.442887      1.4309228     -311.60432     -310.1734       0.35066505     0             -10467.918     -10777.74      -10762.298     -6274.1458      3.669766       143.58486      154.61445      407.3869       0.88123528   
       379   2201.8942      1056.3194      15.743438      1.4304341     -311.47966     -310.04922      0.35161651     0             -10468.829     -10778.527     -10762.783     -6276.9653      3.6704265      142.21706      152.94972      402.34941      0.88125541   
       380   2207.9308      1076.8228      16.049021      1.4299362     -311.40622     -309.97628      0.35294917     0             -10469.748     -10779.371     -10763.322     -6280.7298      3.6710895      140.85846      151.28715      397.27533      0.8813676    
       381   2213.9249      1097.6402      16.359285      1.4294292     -311.2887      -309.85927      0.35466285     0             -10470.709     -10780.214     -10763.855     -6283.2761      3.671755       139.4489       149.5762       392.09272      0.88142125   
       382   2218.96        1118.739       16.673742      1.4289133     -311.13288     -309.70397      0.35675731     0             -10471.697     -10781.044     -10764.37      -6284.7575      3.6724231      137.96221      147.7918       386.73064      0.88141961   
       383   2224.9363      1140.0942      16.992022      1.4283885     -311.01749     -309.5891       0.35923221     0             -10472.7       -10781.93      -10764.938     -6286.9895      3.6730936      136.50745      146.03314      381.40039      0.88149514   
       384   2230.91        1161.6841      17.313798      1.427855      -310.86406     -309.4362       0.36208717     0             -10473.739     -10782.813     -10765.5       -6288.1927      3.6737666      135.00037      144.2252       375.95974      0.88152048   
       385   2236.9169      1183.4787      17.638626      1.4273129     -310.69749     -309.27017      0.36532172     0             -10474.8       -10783.705     -10766.066     -6288.9553      3.6744421      133.45248      142.37801      370.41767      0.88153272   
       386   2242.855       1205.4506      17.966096      1.4267624     -310.52108     -309.09431      0.36893533     0             -10475.884     -10784.609     -10766.643     -6289.3707      3.6751201      131.87568      140.50271      364.802        0.88153794   
       387   2248.7451      1227.5731      18.295811      1.4262035     -310.33381     -308.9076       0.37292737     0             -10476.988     -10785.523     -10767.227     -6289.4326      3.6758004      130.26856      138.59796      359.11005      0.88153403   
       388   2254.6163      1249.8202      18.627384      1.4256364     -310.13734     -308.71171      0.37729716     0             -10478.114     -10786.448     -10767.821     -6289.196       3.6764832      128.63658      136.66972      353.35869      0.88152423   
       389   2261.2851      1272.1684      18.960462      1.4250613     -309.93036     -308.5053       0.38204395     0             -10479.275     -10787.398     -10768.438     -6288.6455      3.6771683      126.99819      134.73996      347.61768      0.88151221   
       390   2267.2403      1294.5885      19.294611      1.4244782     -309.70607     -308.28159      0.38716691     0             -10480.433     -10788.327     -10769.033     -6287.6451      3.6778558      125.27988      132.72945      341.66143      0.88146983   
       391   2273.8882      1317.0562      19.629472      1.4238874     -309.48087     -308.05698      0.39266514     0             -10481.63      -10789.294     -10769.665     -6286.5848      3.6785456      123.60409      130.76369      335.82608      0.88144372   
       392   2279.7313      1339.5469      19.964674      1.423289      -309.24166     -307.81837      0.39853766     0             -10482.821     -10790.241     -10770.276     -6285.1812      3.6792378      121.8406       128.71144      329.767        0.88139245   
       393   2286.3222      1362.036       20.299853      1.422683      -308.99518     -307.5725       0.40478343     0             -10484.055     -10791.223     -10770.923     -6283.6038      3.6799322      120.12089      126.70711      323.84436      0.88134774   
       394   2292.274       1384.499       20.634642      1.4220697     -308.74085     -307.31878      0.41140133     0             -10485.276     -10792.184     -10771.549     -6281.8554      3.680629       118.31049      124.61281      317.68638      0.88128604   
       395   2298.9028      1406.9122      20.96869       1.4214491     -308.47515     -307.0537       0.41839018     0             -10486.542     -10793.177     -10772.208     -6279.8707      3.681328       116.55224      122.57557      311.69176      0.88122475   
       396   2304.7044      1429.2525      21.301651      1.4208215     -308.20631     -306.78549      0.42574872     0             -10487.791     -10794.151     -10772.849     -6277.8523      3.6820292      114.70384      120.44888      305.46292      0.88115334   
       397   2311.4061      1451.4973      21.633188      1.420187      -307.92129     -306.5011       0.43347562     0             -10489.086     -10795.154     -10773.521     -6275.5166      3.6827327      112.91         118.38302      299.41227      0.88107475   
       398   2318.0301      1473.6292      21.963043      1.4195457     -307.62711     -306.20757      0.44156948     0             -10490.383     -10796.149     -10774.186     -6273.0351      3.6834383      111.06842      116.27158      293.24938      0.88098304   
       399   2323.8985      1495.6171      22.290752      1.4188977     -307.34049     -305.9216       0.45002883     0             -10491.664     -10797.136     -10774.845     -6270.8099      3.6841461      109.16193      114.09683      286.91912      0.88090036   
       400   2330.513       1517.4437      22.616058      1.4182432     -307.03047     -305.61223      0.45885213     0             -10492.996     -10798.149     -10775.533     -6268.1442      3.6848561      107.32531      111.9991       280.81433      0.88079998   
       401   2336.958       1539.0953      22.938754      1.4175824     -306.71339     -305.29581      0.46803777     0             -10494.326     -10799.154     -10776.215     -6265.42        3.6855683      105.44351      109.85871      274.60642      0.88068932   
       402   2343.3538      1560.5472      23.258474      1.4169154     -306.39298     -304.97607      0.47758408     0             -10495.66      -10800.159     -10776.9       -6262.7382      3.6862825      103.5405       107.70099      268.36183      0.88057702   
       403   2349.839       1581.7794      23.574919      1.4162423     -306.06608     -304.64984      0.4874893      0             -10497.004     -10801.166     -10777.591     -6260.0391      3.6869988      101.62995      105.53994      262.12009      0.88045981   
       404   2356.2824      1602.7734      23.887816      1.4155633     -305.73381     -304.31825      0.49775162     0             -10498.354     -10802.174     -10778.286     -6257.3601      3.6877172      99.707491      103.37109      255.86905      0.88033849   
       405   2362.7504      1623.5114      24.196896      1.4148785     -305.39534     -303.98046      0.50836915     0             -10499.711     -10803.183     -10778.986     -6254.6933      3.6884377      97.777225      101.19882      249.62146      0.88021209   
       406   2369.147       1643.9762      24.501904      1.4141882     -305.05113     -303.63694      0.51933994     0             -10501.074     -10804.191     -10779.689     -6252.0599      3.6891601      95.838515      99.022578      243.37608      0.8800809    
       407   2375.5789      1664.1512      24.802593      1.4134923     -304.70163     -303.28813      0.53066197     0             -10502.441     -10805.199     -10780.396     -6249.4803      3.6898846      96.080529      96.843546      237.13604      0.87994539   
       408   2382.0689      1684.0206      25.098727      1.4127911     -304.34634     -302.93355      0.54233315     0             -10503.815     -10806.206     -10781.107     -6246.9531      3.690611       96.419319      94.663996      230.90825      0.87980483   
       409   2388.708       1703.5692      25.390081      1.4120847     -303.98632     -302.57423      0.55435133     0             -10505.191     -10807.211     -10781.821     -6244.5117      3.6913395      96.749514      92.483198      224.69039      0.87966038   
       410   2395.2632      1722.7826      25.676439      1.4113733     -303.62089     -302.20952      0.56671428     0             -10506.571     -10808.214     -10782.538     -6242.1496      3.6920698      97.069816      90.304108      218.49116      0.8795111    
       411   2402.0145      1741.6472      25.957597      1.410657      -303.25109     -301.84043      0.57941972     0             -10507.954     -10809.215     -10783.257     -6239.8985      3.6928021      97.381119      88.125936      212.30813      0.87935814   
       412   2408.8641      1760.1497      26.23336       1.4099359     -302.87641     -301.46647      0.59246529     0             -10509.339     -10810.213     -10783.979     -6237.7548      3.6935362      97.682443      85.951177      206.14858      0.87920077   
       413   2415.5777      1778.278       26.503545      1.4092102     -302.49763     -301.08842      0.60584858     0             -10510.725     -10811.207     -10784.704     -6235.7438      3.6942722      97.974347      83.779579      200.01163      0.87903984   
       414   2422.3175      1796.0204      26.767979      1.40848       -302.11454     -300.70606      0.6195671      0             -10512.112     -10812.198     -10785.43      -6233.8675      3.6950101      98.256185      81.612907      193.9024       0.87887497   
       415   2428.7505      1813.366       27.026498      1.4077455     -301.72762     -300.31988      0.63361831     0             -10513.499     -10813.185     -10786.159     -6232.1432      3.6957498      98.52823       79.451528      187.82178      0.87870667   
       416   2435.8128      1830.3045      27.278951      1.4070068     -301.33693     -299.92992      0.64799959     0             -10514.885     -10814.167     -10786.888     -6230.5784      3.6964913      98.790077      77.296515      181.77284      0.8785349    
       417   2443.2972      1846.8308      27.52526       1.406264      -300.91067     -299.5044       0.66270827     0             -10516.307     -10815.148     -10787.623     -6228.4486      3.6972345      99.016988      75.186476      175.88242      0.87831737   
       418   2450.0633      1862.9306      27.765212      1.4055174     -300.53503     -299.12951      0.67774161     0             -10517.663     -10816.115     -10788.35      -6227.7328      3.6979796      99.28114       73.002056      169.7713       0.87816695   
       419   2457.158       1878.5968      27.998702      1.4047669     -300.10689     -298.70212      0.69309682     0             -10519.077     -10817.086     -10789.087     -6226.0775      3.6987263      99.491867      70.916173      163.96638      0.8779496    
       420   2463.7377      1893.8219      28.225616      1.4040128     -299.7282      -298.32419      0.70877102     0             -10520.427     -10818.042     -10789.816     -6225.8173      3.6994747      99.733935      70.397251      157.93108      0.87779804   
       421   2471.183       1908.599       28.445855      1.4032552     -299.2939      -297.89064      0.72476131     0             -10521.835     -10819.001     -10790.555     -6224.5543      3.7002249      99.923767      70.465942      152.21098      0.87757439   
       422   2478.6371      1922.9284      28.659422      1.4024943     -298.87756     -297.47506      0.74106469     0             -10523.214     -10819.948     -10791.288     -6223.969       3.7009766      100.12172      70.545473      146.40985      0.87737427   
       423   2485.2719      1936.7922      28.866048      1.4017301     -298.49641     -297.09468      0.75767812     0             -10524.55      -10820.887     -10792.021     -6224.4664      3.70173        100.332        70.638805      140.49233      0.87722304   
       424   2492.7551      1950.1904      29.065735      1.4009627     -298.05528     -296.65432      0.7745985      0             -10525.946     -10821.826     -10792.76      -6223.8703      3.7024851      100.49094      70.685789      134.9096       0.87699241   
       425   2500.238       1963.126       29.258529      1.4001924     -297.6332      -296.23301      0.79182267     0             -10527.311     -10822.752     -10793.494     -6223.9838      3.7032417      100.65592      70.742413      129.24833      0.87678682   
       426   2507.7943      1975.5893      29.444282      1.3994193     -297.2127      -295.81328      0.80934741     0             -10528.668     -10823.672     -10794.228     -6224.4134      3.7039998      100.81244      70.793367      123.62564      0.87658419   
       427   2514.4915      1987.5696      29.622838      1.3986434     -296.82633     -295.42768      0.82716944     0             -10529.983     -10824.584     -10794.961     -6225.9089      3.7047595      100.97523      70.853444      117.90769      0.8764292    
       428   2521.7771      1999.0704      29.794245      1.397865      -296.37764     -294.97977      0.84528542     0             -10531.358     -10825.493     -10795.699     -6226.263       3.7055207      101.09145      70.871089      112.52532      0.87618979   
       429   2528.977       2010.0965      29.95858       1.397084      -295.94925     -294.55217      0.86369196     0             -10532.7       -10826.389     -10796.43      -6227.3595      3.7062834      101.21126      70.896584      107.07164      0.87597731   
       430   2536.2824      2020.6405      30.115727      1.3963007     -295.52346     -294.12716      0.88238563     0             -10534.033     -10827.277     -10797.162     -6228.7979      3.7070475      101.32245      70.916399      101.66019      0.87576884   
       431   2543.9125      2030.7005      30.265663      1.3955152     -295.09661     -293.70109      0.9013629      0             -10535.358     -10828.158     -10797.893     -6230.4946      3.7078131      101.42138      70.92752       96.309017      0.87555917   
       432   2551.2555      2040.276       30.408376      1.3947275     -294.67086     -293.27614      0.92062024     0             -10536.675     -10829.031     -10798.622     -6232.4989      3.7085801      101.50962      70.931526      91.007852      0.87535118   
       433   2558.6354      2049.3665      30.543862      1.3939379     -294.24368     -292.84974      0.94015402     0             -10537.985     -10829.895     -10799.351     -6234.7516      3.7093484      101.58519      70.92669       85.768612      0.87514123   
       434   2565.9021      2057.9725      30.672125      1.3931463     -293.81749     -292.42435      0.95996058     0             -10539.286     -10830.75      -10800.078     -6237.3073      3.7101181      101.64988      70.914646      80.581743      0.87493264   
       435   2573.2272      2066.0947      30.793179      1.3923531     -293.38867     -291.99632      0.98003621     0             -10540.581     -10831.597     -10800.804     -6240.0812      3.7108892      101.70127      70.893197      75.463354      0.87472021   
       436   2580.2968      2073.7345      30.907043      1.3915581     -292.96117     -291.56962      1.0003771      0             -10541.865     -10832.434     -10801.527     -6243.162       3.7116615      101.74182      70.864723      70.397054      0.87450942   
       437   2587.6121      2080.8934      31.013739      1.3907616     -292.53156     -291.1408       1.0209796      0             -10543.143     -10833.263     -10802.249     -6246.4691      3.7124352      101.76939      70.827125      65.399089      0.87429537   
       438   2595.0321      2087.5734      31.113299      1.3899637     -292.1034      -290.71344      1.0418396      0             -10544.411     -10834.083     -10802.969     -6250.0814      3.7132101      101.78586      70.78231       60.455064      0.874083     
       439   2602.5565      2093.777       31.205758      1.3891645     -291.67361     -290.28445      1.0629533      0             -10545.672     -10834.893     -10803.687     -6253.9262      3.7139862      101.78949      70.728536      55.579216      0.8738679    
       440   2610.0617      2099.507       31.291157      1.3883641     -291.24525     -289.85689      1.0843167      0             -10546.922     -10835.694     -10804.403     -6258.0703      3.7147635      101.7817       70.667314      50.759314      0.87365435   
       441   2617.4652      2104.7663      31.369542      1.3875625     -290.81575     -289.42819      1.1059259      0             -10548.164     -10836.486     -10805.116     -6262.4518      3.715542       101.76121      70.597284      46.007111      0.87343863   
       442   2624.8787      2109.5584      31.440964      1.3867599     -290.38772     -289.00096      1.1277767      0             -10549.395     -10837.268     -10805.827     -6267.127       3.7163216      101.72905      70.519635      42.893166      0.87322439   
       443   2632.3615      2113.887       31.505479      1.3859565     -289.95892     -288.57296      1.149865       0             -10550.618     -10838.041     -10806.536     -6272.0416      3.7171024      101.68425      70.433279      43.243696      0.8730084    
       444   2639.6327      2117.7563      31.563146      1.3851522     -289.53166     -288.14651      1.1721867      0             -10551.83      -10838.804     -10807.241     -6277.2441      3.7178842      101.6276       70.33918       43.592146      0.87279388   
       445   2647.2139      2121.1704      31.61403       1.3843472     -289.10396     -287.71961      1.1947376      0             -10553.033     -10839.558     -10807.944     -6282.6856      3.7186671      101.55837      70.236455      43.9386        0.87257797   
       446   2654.5804      2124.1339      31.658199      1.3835416     -288.67787     -287.29433      1.2175134      0             -10554.226     -10840.303     -10808.644     -6288.4089      3.7194511      101.47715      70.125901      44.282951      0.87236355   
       447   2661.9146      2126.6517      31.695724      1.3827355     -288.25161     -286.86888      1.2405098      0             -10555.409     -10841.037     -10809.342     -6294.369       3.720236       101.38338      70.006789      44.625274      0.87214802   
       448   2669.0836      2128.7289      31.726682      1.381929      -287.82707     -286.44514      1.2637226      0             -10556.581     -10841.763     -10810.036     -6300.6045      3.721022       101.27753      69.879791      44.965469      0.87193404   
       449   2676.3413      2130.3706      31.75115       1.3811222     -287.4026      -286.02147      1.2871473      0             -10557.744     -10842.478     -10810.727     -6307.0732      3.7218089      101.15916      69.744295      45.303604      0.87171919   
       450   2683.6149      2131.5824      31.769211      1.3803151     -286.97995     -285.59963      1.3107796      0             -10558.895     -10843.184     -10811.415     -6313.8105      3.7225968      101.02864      69.60088       45.639586      0.87150597   
       451   2690.9148      2132.3699      31.780949      1.3795078     -286.55758     -285.17807      1.3346149      0             -10560.037     -10843.881     -10812.1       -6320.7763      3.7233855      100.88563      69.449025      45.973477      0.87129211   
       452   2698.0475      2132.7391      31.78645       1.3787005     -286.13715     -284.75845      1.3586488      0             -10561.168     -10844.568     -10812.781     -6328.0037      3.7241752      100.73041      69.289231      46.305189      0.87107998   
       453   2705.3835      2132.6958      31.785806      1.3778932     -285.71721     -284.33932      1.3828768      0             -10562.289     -10845.245     -10813.459     -6335.454       3.7249656      100.56276      69.121058      46.634779      0.87086742   
       454   2712.7397      2132.2463      31.779106      1.377086      -285.29933     -283.92225      1.4072942      0             -10563.398     -10845.913     -10814.134     -6343.1585      3.7257569      100.38286      68.944943      46.962165      0.87065671   
       455   2720.0737      2131.3968      31.766445      1.376279      -284.88212     -283.50584      1.4318965      0             -10564.498     -10846.572     -10814.805     -6351.0798      3.726549       100.19058      68.760513      47.287401      0.87044576   
       456   2727.3522      2130.1538      31.74792       1.3754723     -284.46709     -283.09162      1.4566791      0             -10565.586     -10847.221     -10815.473     -6359.2473      3.7273419      99.986036      68.568154      47.610404      0.87023678   
       457   2734.7033      2128.5238      31.723626      1.3746659     -284.0529      -282.67823      1.4816372      0             -10566.664     -10847.861     -10816.137     -6367.6246      3.7281355      99.769176      68.367552      47.931228      0.87002774   
       458   2741.9652      2126.5135      31.693664      1.3738599     -283.64099     -282.26713      1.5067662      0             -10567.731     -10848.491     -10816.797     -6376.2396      3.7289298      99.54007       68.159049      48.249795      0.86982076   
       459   2749.3204      2124.1295      31.658133      1.3730545     -283.23004     -281.85699      1.5320613      0             -10568.787     -10849.112     -10817.454     -6385.0565      3.7297248      99.298732      69.04977       48.566154      0.86961387   
       460   2756.7083      2121.3787      31.617134      1.3722496     -282.82146     -281.44921      1.5575177      0             -10569.832     -10849.724     -10818.107     -6394.1016      3.7305204      99.045183      70.25727       48.88023       0.86940912   
       461   2764.0848      2118.2679      31.570771      1.3714453     -282.41396     -281.04252      1.5831306      0             -10570.867     -10850.327     -10818.756     -6403.34        3.7313166      99.905         71.440366      49.192071      0.86920455   
       462   2771.4053      2114.8041      31.519147      1.3706418     -282.0089      -280.63826      1.6088952      0             -10571.891     -10850.92      -10819.401     -6412.7971      3.7321135      101.02458      72.593907      51.267112      0.8690022    
       463   2778.8361      2110.9944      31.462366      1.369839      -281.60502     -280.23518      1.6348066      0             -10572.905     -10851.505     -10820.043     -6422.4384      3.7329109      102.12079      73.723484      54.526836      0.86880015   
       464   2786.2173      2106.8456      31.400533      1.3690371     -281.20365     -279.83461      1.66086        0             -10573.907     -10852.081     -10820.68      -6432.2885      3.7337089      103.1842       74.823636      57.728551      0.86860037   
       465   2793.4201      2102.365       31.333754      1.3682361     -280.80357     -279.43534      1.6870503      0             -10574.899     -10852.647     -10821.313     -6442.3137      3.7345073      104.22472      75.900299      60.874048      0.86840101   
       466   2800.659       2097.5596      31.262134      1.3674361     -280.40606     -279.03863      1.7133727      0             -10575.88      -10853.205     -10821.943     -6452.5377      3.7353063      105.2324       76.947763      63.962851      0.86820399   
       467   2808.1067      2092.4366      31.18578       1.3666372     -280.00993     -278.6433       1.7398222      0             -10576.851     -10853.754     -10822.568     -6462.9273      3.7361057      106.21769      77.972271      66.996352      0.86800748   
       468   2815.4704      2087.003       31.104798      1.3658393     -279.61643     -278.25059      1.7663938      0             -10577.81      -10854.294     -10823.19      -6473.5053      3.7369055      107.17016      78.967826      69.974563      0.86781337   
       469   2822.5603      2081.266       31.019294      1.3650427     -279.22439     -277.85934      1.7930824      0             -10578.76      -10854.826     -10823.807     -6484.2392      3.7377057      108.10081      79.940986      72.898497      0.86761987   
       470   2829.9025      2075.2328      30.929374      1.3642472     -278.83502     -277.47077      1.819883       0             -10579.698     -10855.349     -10824.42      -6495.1509      3.7385063      108.99871      80.885472      75.768573      0.8674288    
       471   2837.14        2068.9104      30.835145      1.3634531     -278.44717     -277.08372      1.8467905      0             -10580.627     -10855.864     -10825.029     -6506.2086      3.7393072      109.8754       81.808143      78.58543       0.86723841   
       472   2844.424       2062.306       30.736713      1.3626603     -278.06204     -276.69938      1.8737999      0             -10581.545     -10856.37      -10825.633     -6517.4335      3.7401084      110.71943      82.702434      81.349842      0.86705051   
       473   2851.8758      2055.4267      30.634183      1.3618689     -277.6785      -276.31663      1.900906       0             -10582.452     -10856.868     -10826.234     -6528.7942      3.7409099      111.54286      83.575508      84.062107      0.86686336   
       474   2859.0929      2048.2795      30.527661      1.3610789     -277.29771     -275.93663      1.9281037      0             -10583.349     -10857.358     -10826.83      -6540.3115      3.7417116      112.33375      84.420513      86.723331      0.86667872   
       475   2866.5133      2040.8715      30.417251      1.3602905     -276.91856     -275.55827      1.9553879      0             -10584.236     -10857.839     -10827.422     -6551.9544      3.7425135      113.1047       85.244927      89.333563      0.86649489   
       476   2873.9089      2033.2096      30.303058      1.3595036     -276.54218     -275.18268      1.9827533      0             -10585.113     -10858.313     -10828.01      -6563.7432      3.7433157      113.84328      86.041616      91.894213      0.86631361   
       477   2881.307       2025.3008      30.185184      1.3587183     -276.16749     -274.80877      2.0101949      0             -10585.98      -10858.778     -10828.593     -6575.6473      3.7441179      114.56258      86.818366      94.405074      0.86613319   
       478   2887.9638      2017.1451      30.063632      1.3579347     -275.84801     -274.49007      2.0377074      0             -10586.793     -10859.246     -10829.182     -6588.8891      3.7449204      115.25766      87.572176      96.822418      0.86603685   
       479   2895.4872      2008.7558      29.938597      1.3571528     -275.43373     -274.07657      2.0652856      0             -10587.678     -10859.689     -10829.751     -6600.0301      3.7457229      115.93691      88.318459      99.340948      0.86579163   
       480   2902.8171      2000.1477      29.810301      1.3563726     -275.0569      -273.70053      2.0929242      0             -10588.521     -10860.129     -10830.318     -6612.0822      3.7465254      116.54858      88.995801      101.63944      0.86560235   
       481   2909.5391      1991.3138      29.678641      1.3555943     -274.74375     -273.38816      2.1206181      0             -10589.305     -10860.573     -10830.894     -6625.6486      3.747328       117.18803      89.69687       103.94973      0.86551083   
       482   2916.8374      1982.2657      29.543788      1.3548178     -274.34194     -272.98712      2.148362       0             -10590.155     -10860.994     -10831.45      -6637.2387      3.7481306      117.77495      90.360024      106.28527      0.86527926   
       483   2924.3212      1973.0183      29.405965      1.3540432     -273.97139     -272.61735      2.1761507      0             -10590.969     -10861.411     -10832.005     -6649.5822      3.7489332      118.31825      90.975123      108.45903      0.8650943    
       484   2931.2502      1963.5653      29.265077      1.3532705     -273.66453     -272.31126      2.2039788      0             -10591.725     -10861.833     -10832.567     -6663.4241      3.7497358      118.88442      91.60908       110.63195      0.86500758   
       485   2938.6387      1953.9182      29.121295      1.3524997     -273.26575     -271.91325      2.2318411      0             -10592.549     -10862.23      -10833.109     -6675.1988      3.7505382      119.40755      92.213937      112.85595      0.86477491   
       486   2945.7682      1944.0914      28.974837      1.351731      -272.90175     -271.55002      2.2597323      0             -10593.335     -10862.625     -10833.65      -6687.7916      3.7513406      119.87741      92.762491      114.89183      0.86459463   
       487   2952.2772      1934.0783      28.8256        1.3509644     -272.60325     -271.25229      2.2876471      0             -10594.062     -10863.026     -10834.201     -6701.9082      3.7521427      120.37306      93.332807      116.93355      0.8645159    
       488   2959.7483      1923.8898      28.67375       1.3501998     -272.21356     -270.86336      2.3155803      0             -10594.855     -10863.403     -10834.729     -6713.959       3.7529448      120.82055      93.870096      119.01704      0.86429165   
       489   2966.3072      1913.5333      28.519396      1.3494373     -271.91435     -270.56492      2.3435265      0             -10595.568     -10863.789     -10835.27      -6728.0908      3.7537466      121.23926      94.370396      120.9032       0.86420833   
       490   2973.5033      1903.0149      28.36263       1.348677      -271.52413     -270.17545      2.3714805      0             -10596.346     -10864.15      -10835.787     -6740.1498      3.7545481      121.64956      94.873461      122.92639      0.86397924   
       491   2980.1563      1892.3408      28.203543      1.3479189     -271.22909     -269.88117      2.3994369      0             -10597.041     -10864.523     -10836.319     -6754.3869      3.7553494      122.02527      95.334609      124.73039      0.86389897   
       492   2987.3332      1881.517       28.042224      1.3471631     -270.84394     -269.49677      2.4273904      0             -10597.801     -10864.87      -10836.828     -6766.5621      3.7561504      122.38949      95.796504      126.66923      0.86367389   
       493   2994.018       1870.5492      27.878759      1.3464095     -270.55378     -269.20737      2.4553357      0             -10598.478     -10865.23      -10837.351     -6780.9014      3.7569511      122.72164      96.218945      128.39704      0.86359783   
       494   3001.2986      1859.4433      27.713237      1.3456581     -270.17249     -268.82684      2.4832676      0             -10599.22      -10865.564     -10837.851     -6793.1461      3.7577514      123.04322      96.642981      130.2619       0.86337489   
       495   3007.6623      1848.2052      27.545743      1.3449092     -269.88682     -268.54191      2.5111807      0             -10599.88      -10865.911     -10838.365     -6807.5594      3.7585513      123.33424      97.02862       131.91342      0.86330241   
       496   3015.2676      1836.8403      27.37636       1.3441625     -269.5117      -268.16754      2.5390697      0             -10600.604     -10866.232     -10838.856     -6819.9072      3.7593508      123.61241      97.414176      133.69926      0.86308527   
       497   3021.9732      1825.3541      27.20517       1.3434183     -269.23081     -267.88739      2.5669293      0             -10601.247     -10866.567     -10839.362     -6834.3829      3.7601499      123.86298      97.764171      135.28174      0.86301685   
       498   3029.2438      1813.7523      27.032255      1.3426764     -268.85964     -267.51696      2.5947543      0             -10601.953     -10866.876     -10839.843     -6846.7649      3.7609484      124.10008      98.113676      136.99823      0.86280199   
       499   3035.7082      1802.0402      26.857698      1.3419371     -268.58328     -267.24134      2.6225393      0             -10602.58      -10867.199     -10840.341     -6861.2789      3.7617465      124.31146      98.428795      138.50815      0.86273721   
       500   3042.6857      1790.2186      26.681508      1.3412001     -268.27378     -266.93257      2.650279       0             -10603.226     -10867.509     -10840.827     -6874.9995      3.762544       124.46575      98.705174      139.99186      0.86261755   
       501   3049.3032      1778.298       26.503842      1.3404657     -267.96059     -266.62013      2.6779683      0             -10603.869     -10867.811     -10841.307     -6888.5919      3.7633409      124.64256      98.995958      141.51454      0.86249004   
       502   3055.9268      1766.2824      26.324762      1.3397338     -267.64994     -266.31021      2.7056019      0             -10604.503     -10868.108     -10841.783     -6902.1946      3.7641373      124.80065      99.270477      143.01196      0.86236468   
       503   3062.6221      1754.1771      26.144344      1.3390044     -267.3385      -265.9995       2.7331744      0             -10605.132     -10868.398     -10842.254     -6915.7273      3.764933       124.93479      99.524347      144.4677       0.86223612   
       504   3069.2914      1741.9872      25.962665      1.3382776     -267.02917     -265.69089      2.7606806      0             -10605.752     -10868.682     -10842.72      -6929.2519      3.765728       125.05566      99.766214      145.90351      0.862109     
       505   3075.8801      1729.7176      25.779797      1.3375534     -266.72241     -265.38486      2.7881154      0             -10606.364     -10868.961     -10843.181     -6942.7755      3.7665223      125.15858      99.992061      147.30275      0.86198413   
       506   3082.3627      1717.3731      25.595814      1.3368318     -266.41692     -265.08009      2.8154736      0             -10606.969     -10869.234     -10843.638     -6956.2635      3.7673159      125.23985      100.19969      148.67066      0.86185935   
       507   3089.0244      1704.9584      25.410786      1.3361128     -266.11445     -264.77834      2.8427498      0             -10607.566     -10869.502     -10844.091     -6969.7525      3.7681088      125.30892      100.39593      150.01117      0.86173755   
       508   3095.7078      1692.4783      25.224782      1.3353964     -265.8137      -264.4783       2.8699389      0             -10608.156     -10869.764     -10844.539     -6983.2084      3.7689008      125.35554      100.57336      151.31878      0.86161657   
       509   3102.3983      1679.9374      25.037871      1.3346828     -265.51578     -264.1811       2.8970358      0             -10608.737     -10870.021     -10844.983     -6996.6532      3.769692       125.39003      100.73963      152.59982      0.86149827   
       510   3109.0215      1667.3401      24.85012       1.3339718     -265.21972     -263.88575      2.9240353      0             -10609.311     -10870.273     -10845.423     -7010.0606      3.7704824      125.4036       100.88834      153.85034      0.86138104   
       511   3115.7688      1654.6908      24.661595      1.3332636     -264.92658     -263.59332      2.9509322      0             -10609.878     -10870.52      -10845.858     -7023.4512      3.7712719      125.40485      101.02586      155.07406      0.86126662   
       512   3122.4614      1641.994       24.47236       1.3325581     -264.63519     -263.30264      2.9777215      0             -10610.437     -10870.762     -10846.29      -7036.7947      3.7720605      125.38612      101.14666      156.26908      0.86115311   
       513   3129.1386      1629.2537      24.28248       1.3318553     -264.34686     -263.01501      3.0043981      0             -10610.988     -10870.999     -10846.716     -7050.1172      3.7728481      125.35559      101.25677      157.43797      0.86104264   
       514   3135.9642      1616.4744      24.092016      1.3311553     -264.06018     -262.72902      3.0309568      0             -10611.533     -10871.231     -10847.139     -7063.3831      3.7736348      125.30554      101.35058      158.57919      0.86093291   
       515   3142.6857      1603.66        23.901029      1.3304581     -263.77662     -262.44617      3.0573926      0             -10612.07      -10871.458     -10847.557     -7076.6226      3.7744204      125.24443      101.43437      159.6954       0.86082634   
       516   3149.4045      1590.8147      23.709581      1.3297636     -263.49466     -262.1649       3.0837005      0             -10612.6       -10871.681     -10847.971     -7089.7972      3.775205       125.1642       101.50225      160.78466      0.86072043   
       517   3156.1454      1577.9423      23.517731      1.329072      -263.21583     -261.88676      3.1098755      0             -10613.122     -10871.899     -10848.381     -7102.9389      3.7759886      125.07362      101.56073      161.85011      0.86061771   
       518   3162.1835      1565.0402      23.325438      1.3283832     -262.99939     -261.67101      3.1359125      0             -10613.596     -10872.131     -10848.806     -7117.4029      3.776771       125.09229      101.69734      163.02263      0.86061586   
       519   3168.9447      1552.1175      23.132838      1.3276973     -262.68571     -261.35801      3.1618067      0             -10614.132     -10872.329     -10849.196     -7129.534       3.7775524      124.86331      101.66058      163.97259      0.86045181   
       520   3175.5673      1539.1857      22.940101      1.3270142     -262.40051     -261.0735       3.1875531      0             -10614.643     -10872.529     -10849.589     -7142.1974      3.7783325      124.71487      101.66379      164.90348      0.86033266   
       521   3181.5292      1526.2366      22.747107      1.326334      -262.19018     -260.86385      3.2131468      0             -10615.098     -10872.748     -10850.001     -7156.458       3.7791115      124.69478      101.76576      166.01089      0.86033534   
       522   3188.0477      1513.278       22.553972      1.3256567     -261.87848     -260.55282      3.2385829      0             -10615.616     -10872.931     -10850.377     -7168.2817      3.7798892      124.42264      101.69326      166.89633      0.86016834   
       523   3194.7791      1500.3215      22.360867      1.3249822     -261.5992      -260.27421      3.2638566      0             -10616.108     -10873.118     -10850.757     -7180.7181      3.7806657      124.22968      101.65762      167.74095      0.86005296   
       524   3200.7181      1487.3588      22.16767       1.3243107     -261.39465     -260.07034      3.288963       0             -10616.543     -10873.325     -10851.157     -7194.7393      3.781441       124.16785      101.72396      168.77592      0.86005961   
       525   3207.4412      1474.3972      21.974489      1.3236421     -261.09154     -259.7679       3.3138974      0             -10617.04      -10873.494     -10851.52      -7206.3787      3.7822149      123.85789      101.61875      169.59021      0.85990065   
       526   3213.3808      1461.4413      21.781394      1.3229764     -260.88344     -259.56046      3.338655       0             -10617.469     -10873.691     -10851.909     -7220.0569      3.7829874      123.75452      101.64371      170.50066      0.85989765   
       527   3220.1151      1448.4947      21.588438      1.3223137     -260.57508     -259.25277      3.3632311      0             -10617.959     -10873.849     -10852.26      -7231.3079      3.7837586      123.41953      101.51829      171.29458      0.8597258    
       528   3226.064       1435.5603      21.395664      1.3216539     -260.3745      -259.05285      3.387621       0             -10618.373     -10874.039     -10852.643     -7244.8839      3.7845284      123.30036      101.52765      172.16613      0.85973152   
       529   3232.6752      1422.6415      21.20312       1.3209971     -260.0712      -258.75021      3.41182        0             -10618.85      -10874.189     -10852.985     -7255.9709      3.7852967      122.93287      101.37516      172.90235      0.85956389   
       530   3238.6365      1409.7415      21.010858      1.3203432     -259.87377     -258.55343      3.4358236      0             -10619.253     -10874.371     -10853.36      -7269.3336      3.7860636      122.79618      101.36944      173.74075      0.85957105   
       531   3245.1914      1396.8632      20.81892       1.3196923     -259.57714     -258.25745      3.4596271      0             -10619.716     -10874.514     -10853.695     -7280.2825      3.786829       122.40821      101.19911      174.43193      0.85941037   
       532   3251.2687      1384.01        20.627354      1.3190444     -259.3828      -258.06376      3.483226       0             -10620.108     -10874.688     -10854.061     -7293.4199      3.7875929      122.24424      101.17078      175.22657      0.85941887   
       533   3257.9387      1371.1846      20.436204      1.3183995     -259.08949     -257.77109      3.5066159      0             -10620.558     -10874.823     -10854.387     -7304.1434      3.7883552      121.83321      100.98096      175.88229      0.85925954   
       534   3263.903       1358.39        20.245513      1.3177576     -258.90021     -257.58245      3.5297921      0             -10620.938     -10874.991     -10854.745     -7317.09        3.7891159      121.65713      100.94171      176.65077      0.85927267   
       535   3270.5963      1345.6288      20.05532       1.3171187     -258.61506     -257.29795      3.5527504      0             -10621.374     -10875.12      -10855.064     -7327.689       3.789875       121.22886      100.73703      177.26594      0.85912281   
       536   3276.6211      1332.9042      19.865672      1.3164829     -258.42861     -257.11212      3.5754863      0             -10621.744     -10875.281     -10855.415     -7340.384       3.7906325      121.02532      100.67513      178.08819      0.85913683   
       537   3283.2919      1320.2189      19.676609      1.31585       -258.14545     -256.8296       3.5979955      0             -10622.17      -10875.401     -10855.725     -7350.7072      3.7913883      120.57481      100.45199      178.81476      0.8589861    
       538   3289.3267      1307.5756      19.488172      1.3152202     -257.96384     -256.64862      3.6202737      0             -10622.527     -10875.556     -10856.068     -7363.1871      3.7921424      120.36044      100.38011      179.71376      0.85900439   
       539   3296.0306      1294.9768      19.300399      1.3145934     -257.68722     -256.37262      3.6423166      0             -10622.94      -10875.67      -10856.37      -7373.3288      3.7928947      119.89425      100.14375      180.41187      0.85886041   
       540   3301.3404      1282.4194      19.113244      1.3139697     -257.55792     -256.24395      3.66412        0             -10623.258     -10875.838     -10856.725     -7386.673       3.7936454      119.83311      100.17582      181.38139      0.85896322   
       541   3307.9484      1269.9103      18.926806      1.313349      -257.25877     -255.94542      3.6856797      0             -10623.674     -10875.934     -10857.007     -7395.9652      3.7943942      119.1808       99.815031      181.98471      0.85877687   
       542   3313.8275      1257.4591      18.741233      1.3127313     -257.07484     -255.76211      3.7069916      0             -10624.017     -10876.073     -10857.331     -7407.7138      3.7951411      118.9284       99.704514      182.78677      0.85878342   
       543   3320.4208      1245.0643      18.5565        1.3121167     -256.80399     -255.49187      3.7280517      0             -10624.409     -10876.173     -10857.616     -7417.2992      3.7958863      118.4243       99.435746      183.42305      0.8586407    
       544   3325.6668      1232.7216      18.372544      1.3115052     -256.67824     -255.36673      3.7488559      0             -10624.709     -10876.327     -10857.955     -7430.027       3.7966295      118.31902      99.43036       184.31666      0.85874196   
       545   3331.6952      1220.434       18.18941       1.3108967     -256.45556     -255.14467      3.7694003      0             -10625.061     -10876.436     -10858.247     -7440.3629      3.7973709      117.73798      99.105242      184.95912      0.85867656   
       546   3338.4156      1208.2185      18.00735       1.3102913     -256.16469     -254.8544       3.7896808      0             -10625.453     -10876.517     -10858.51      -7448.9516      3.7981103      117.21962      98.821941      185.51848      0.85849353   
       547   3343.7711      1196.0629      17.826182      1.309689      -256.04168     -254.73199      3.8096936      0             -10625.741     -10876.663     -10858.837     -7461.1962      3.7988478      117.09869      98.800622      186.36436      0.85859372   
       548   3349.8339      1183.969       17.645933      1.3090897     -255.83102     -254.52193      3.8294349      0             -10626.072     -10876.765     -10859.119     -7471.2552      3.7995832      116.51457      98.468399      186.97419      0.85854248   
       549   3355.1784      1171.9444      17.466718      1.3084935     -255.67323     -254.36474      3.8489009      0             -10626.373     -10876.889     -10859.422     -7482.3345      3.8003166      116.27145      98.360936      187.69716      0.85857956   
       550   3361.9746      1159.994       17.288609      1.3079005     -255.36026     -254.05236      3.8680879      0             -10626.76      -10876.944     -10859.655     -7489.6754      3.801048       115.55909      97.959335      188.16414      0.85834995   
       551   3367.1982      1148.1168      17.111591      1.3073104     -255.23661     -253.9293       3.8869922      0             -10627.034     -10877.076     -10859.964     -7501.1518      3.8017773      115.38261      97.88271       188.91839      0.85844128   
       552   3373.2743      1136.3126      16.93566       1.3067235     -255.02493     -253.71821      3.9056101      0             -10627.351     -10877.163     -10860.228     -7510.4245      3.8025045      114.78064      97.537264      189.46599      0.85837992   
       553   3378.4998      1124.5867      16.760896      1.3061397     -254.87234     -253.5662       3.9239381      0             -10627.633     -10877.276     -10860.515     -7520.852       3.8032296      114.50768      97.402719      190.13124      0.8584178    
       554   3384.4233      1112.9408      16.587326      1.3055589     -254.64245     -253.33689      3.9419727      0             -10627.954     -10877.349     -10860.762     -7529.3155      3.8039525      113.8641       97.031492      190.64098      0.85832114   
       555   3389.7133      1101.377       16.414978      1.3049812     -254.48989     -253.18491      3.9597104      0             -10628.23      -10877.456     -10861.041     -7539.3473      3.8046732      113.58949      96.892553      191.27787      0.85835503   
       556   3395.6377      1089.8971      16.243882      1.3044067     -254.26103     -252.95663      3.9771478      0             -10628.543     -10877.522     -10861.279     -7547.4346      3.8053916      112.93622      96.513539      191.76177      0.85825581   
       557   3400.8769      1078.5033      16.074068      1.3038352     -254.11164     -252.8078       3.9942816      0             -10628.81      -10877.624     -10861.55      -7557.1355      3.8061079      112.65101      96.364279      192.37244      0.858291     
       558   3406.7355      1067.1975      15.905565      1.3032668     -253.88774     -252.58447      4.0111084      0             -10629.112     -10877.686     -10861.78      -7564.9295      3.8068218      111.98632      95.975201      192.83491      0.8581959    
       559   3412.0239      1055.9816      15.738403      1.3027015     -253.74131     -252.43861      4.0276251      0             -10629.371     -10877.782     -10862.044     -7574.288       3.8075335      111.6954       95.820888      193.4195       0.85823203   
       560   3418.1264      1044.8575      15.572609      1.3021393     -253.52256     -252.22042      4.0438284      0             -10629.663     -10877.839     -10862.267     -7581.7863      3.8082428      111.02672      95.427812      193.86205      0.85814137   
       561   3423.3072      1033.8272      15.408212      1.3015802     -253.37964     -252.07806      4.0597153      0             -10629.913     -10877.931     -10862.523     -7590.8085      3.8089498      110.716        95.25651       194.42188      0.85817936   
       562   3429.4111      1022.8924      15.245239      1.3010242     -253.16506     -251.86404      4.0752826      0             -10630.195     -10877.984     -10862.738     -7597.9824      3.8096544      110.03598      94.854327      194.84417      0.85809145   
       563   3434.6554      1012.0549      15.083717      1.3004712     -253.02584     -251.72537      4.0905274      0             -10630.436     -10878.071     -10862.987     -7606.6663      3.8103566      109.72614      94.682818      195.38046      0.8581316    
       564   3440.7294      1001.3166      14.923672      1.2999214     -252.81735     -251.51743      4.1054468      0             -10630.708     -10878.12      -10863.196     -7613.5533      3.8110563      109.04304      94.277182      195.78492      0.85804973   
       565   3446.0752      990.67913      14.765132      1.2993747     -252.68163     -251.38225      4.1200379      0             -10630.94      -10878.203     -10863.438     -7621.8885      3.8117536      108.7121       94.087827      196.29788      0.85809168   
       566   3451.4911      980.1413       14.608075      1.298831      -252.53519     -251.23636      4.1342978      0             -10631.172     -10878.274     -10863.666     -7629.764       3.8124484      108.22456      93.803202      196.75557      0.85811269   
       567   3456.8292      969.70817      14.452579      1.2982905     -252.3799      -251.08161      4.1482238      0             -10631.406     -10878.34      -10863.887     -7637.2188      3.8131406      107.721        93.506365      197.19998      0.85811631   
       568   3462.8758      959.38381      14.298705      1.2977531     -252.15809     -250.86033      4.1618132      0             -10631.672     -10878.37      -10864.071     -7642.9318      3.8138304      106.98716      93.067573      197.55513      0.85800248   
       569   3468.0577      949.16669      14.146428      1.2972187     -252.02543     -250.72821      4.1750635      0             -10631.891     -10878.444     -10864.297     -7650.4621      3.8145175      106.65155      92.868629      198.01985      0.85804121   
       570   3473.4525      939.05588      13.995736      1.2966874     -251.88784     -250.59116      4.1879719      0             -10632.105     -10878.508     -10864.512     -7657.6593      3.8152021      106.16161      92.578682      198.44028      0.85806887   
       571   3478.7332      929.05645      13.846704      1.2961592     -251.73861     -250.44245      4.2005362      0             -10632.322     -10878.564     -10864.718     -7664.3666      3.8158841      105.63811      92.266373      198.84172      0.85807419   
       572   3483.936       919.1697       13.699351      1.2956341     -251.58713     -250.2915       4.2127537      0             -10632.538     -10878.617     -10864.918     -7670.7973      3.8165634      105.11238      91.952018      199.23202      0.85807341   
       573   3489.1871      909.39696      13.553698      1.2951121     -251.43667     -250.14156      4.2246222      0             -10632.751     -10878.668     -10865.114     -7677.0253      3.81724        104.58308      91.633447      199.61265      0.85807219   
       574   3494.4298      899.73978      13.409767      1.2945932     -251.2867      -249.99211      4.2361393      0             -10632.96      -10878.716     -10865.306     -7683.0372      3.8179139      104.04655      91.310014      199.98231      0.85806959   
       575   3499.6379      890.19969      13.267581      1.2940774     -251.1392      -249.84512      4.2473028      0             -10633.164     -10878.762     -10865.495     -7688.8768      3.8185852      103.51406      90.987603      200.344        0.85806904   
       576   3505.0494      880.77819      13.127162      1.2935646     -250.9928      -249.69924      4.2581106      0             -10633.365     -10878.806     -10865.679     -7694.5119      3.8192536      102.97215      90.659059      200.69532      0.85806815   
       577   3510.4386      871.47678      12.988534      1.293055      -250.849       -249.55594      4.2685605      0             -10633.562     -10878.849     -10865.86      -7699.9751      3.8199193      102.43451      90.331709      201.03905      0.85806951   
       578   3515.7374      862.29692      12.851717      1.2925484     -250.7067      -249.41415      4.2786505      0             -10633.754     -10878.89      -10866.038     -7705.2405      3.8205822      101.88883      89.999285      201.3732       0.85807121   
       579   3521.1887      853.24004      12.716732      1.2920449     -250.56698     -249.27494      4.2883787      0             -10633.942     -10878.929     -10866.212     -7710.3317      3.8212423      101.34618      89.667149      201.69987      0.85807514   
       580   3526.5916      844.30755      12.583602      1.2915444     -250.42898     -249.13744      4.2977431      0             -10634.127     -10878.966     -10866.383     -7715.2276      3.8218996      100.79731      89.331358      202.01753      0.85807977   
       581   3531.881       835.50084      12.452347      1.2910471     -250.29356     -249.00251      4.306742       0             -10634.307     -10879.002     -10866.55      -7719.9468      3.8225539      100.25017      88.994816      202.32783      0.85808659   
       582   3537.117       826.82129      12.322986      1.2905528     -250.15996     -248.86941      4.3153735      0             -10634.483     -10879.037     -10866.714     -7724.4712      3.8232054      99.698477      88.655991      202.62955      0.8580943    
       583   3542.3051      818.27025      12.195541      1.2900615     -250.02894     -248.73888      4.323636       0             -10634.654     -10879.07      -10866.874     -7728.8168      3.823854       99.147386      88.315438      202.92404      0.85810419   
       584   3547.4626      809.84904      12.070031      1.2895734     -249.89981     -248.61024      4.3315278      0             -10634.822     -10879.101     -10867.031     -7732.967       3.8244996      98.593225      87.973882      203.21029      0.85811506   
       585   3552.6394      801.55897      11.946475      1.2890883     -249.77327     -248.48418      4.3390475      0             -10634.986     -10879.131     -10867.185     -7736.9364      3.8251423      98.038664      87.629677      203.48946      0.85812811   
       586   3557.7582      793.40133      11.824893      1.2886062     -249.64865     -248.36004      4.3461935      0             -10635.146     -10879.159     -10867.334     -7740.7095      3.825782       97.482409      87.285692      203.76067      0.8581422    
       587   3562.9796      785.37741      11.705304      1.2881272     -249.52662     -248.23849      4.3529644      0             -10635.301     -10879.187     -10867.481     -7744.2999      3.8264187      96.924805      86.938156      204.02498      0.85815847   
       588   3568.1714      777.48843      11.587727      1.2876513     -249.40656     -248.11891      4.3593589      0             -10635.453     -10879.212     -10867.625     -7747.6929      3.8270523      96.366833      86.592033      204.28156      0.85817583   
       589   3573.0967      769.73566      11.472179      1.2871784     -249.28908     -248.0019       4.3653757      0             -10635.6       -10879.237     -10867.765     -7750.9014      3.8276829      95.80657       86.241458      204.53138      0.85819535   
       590   3578.2242      762.12028      11.358679      1.2867086     -249.1736      -247.88689      4.3710137      0             -10635.744     -10879.26      -10867.901     -7753.9114      3.8283104      95.247248      85.893479      204.77373      0.858216     
       591   3583.44        754.64352      11.247245      1.2862418     -249.0607      -247.77446      4.3762716      0             -10635.884     -10879.282     -10868.035     -7756.7351      3.8289348      94.684678      86.083214      205.00944      0.85823879   
       592   3588.8151      747.30654      11.137894      1.2857781     -248.94984     -247.66407      4.3811485      0             -10636.019     -10879.302     -10868.164     -7759.3594      3.8295561      94.166306      86.286896      205.23791      0.85826276   
       593   3594.1814      740.11051      11.030644      1.2853174     -248.84155     -247.55624      4.3856434      0             -10636.151     -10879.322     -10868.291     -7761.7956      3.8301743      94.449289      86.487633      205.45986      0.85828886   
       594   3599.5562      733.05657      10.925512      1.2848597     -248.73534     -247.45048      4.3897553      0             -10636.279     -10879.34      -10868.414     -7764.0317      3.8307892      94.728473      86.684949      205.67478      0.85831618   
       595   3604.9844      726.14585      10.822514      1.2844051     -248.63169     -247.34729      4.3934834      0             -10636.403     -10879.357     -10868.534     -7766.0778      3.831401       95.004472      86.879357      205.88329      0.85834558   
       596   3610.3798      719.37947      10.721668      1.2839535     -248.53016     -247.24621      4.396827       0             -10636.523     -10879.373     -10868.651     -7767.9233      3.8320096      95.276751      87.070428      206.08499      0.85837629   
       597   3615.6278      712.7585       10.622989      1.2835049     -248.43118     -247.14767      4.3997854      0             -10636.639     -10879.387     -10868.764     -7769.577       3.832615       95.545873      87.258621      206.28036      0.85840903   
       598   3620.8594      706.28404      10.526493      1.2830594     -248.33436     -247.0513       4.402358       0             -10636.752     -10879.401     -10868.874     -7771.0296      3.8332171      95.811356      87.443561      206.46914      0.85844313   
       599   3626.2376      699.95713      10.432196      1.2826168     -248.24007     -246.95745      4.4045442      0             -10636.86      -10879.413     -10868.981     -7772.2887      3.8338159      96.073702      87.625648      206.65166      0.85847923   
       600   3631.5667      693.77882      10.340114      1.2821773     -248.148       -246.86582      4.4063435      0             -10636.965     -10879.425     -10869.085     -7773.3465      3.8344115      96.332489      87.804563      206.82779      0.85851676   
       601   3636.6871      687.75014      10.250263      1.2817408     -248.05843     -246.77669      4.4077556      0             -10637.066     -10879.435     -10869.185     -7774.209       3.8350037      96.588154      87.980645      206.99772      0.85855625   
       602   3641.9433      681.87209      10.162656      1.2813074     -247.97114     -246.68983      4.4087801      0             -10637.163     -10879.444     -10869.282     -7774.8701      3.8355926      96.840339      88.153636      207.16146      0.85859723   
       603   3647.1215      676.14566      10.077309      1.2808769     -247.88634     -246.60546      4.4094167      0             -10637.257     -10879.453     -10869.375     -7775.3342      3.8361781      97.089413      88.323809      207.31907      0.85864012   
       604   3652.4129      670.57184      9.9942364      1.2804494     -247.80385     -246.52341      4.4096654      0             -10637.346     -10879.46      -10869.466     -7775.597       3.8367603      97.335086      88.490971      207.47066      0.85868459   
       605   3657.6385      665.15157      9.9134524      1.2800249     -247.72385     -246.44382      4.409526       0             -10637.432     -10879.466     -10869.553     -7775.6613      3.8373391      97.577652      88.655324      207.61617      0.85873092   
       606   3662.6855      659.8858       9.8349711      1.2796034     -247.64621     -246.36661      4.4089984      0             -10637.514     -10879.472     -10869.637     -7775.5242      3.8379145      97.816895      88.816744      207.75583      0.8587789    
       607   3667.9258      654.77545      9.7588063      1.2791849     -247.57104     -246.29185      4.4080827      0             -10637.593     -10879.476     -10869.718     -7775.1873      3.8384864      98.053031      88.97536       207.88947      0.85882869   
       608   3673.162       649.82144      9.6849714      1.2787694     -247.49828     -246.21951      4.4067791      0             -10637.667     -10879.48      -10869.795     -7774.6491      3.8390549      98.285921      89.131119      208.01741      0.85888021   
       609   3678.3666      645.02465      9.6134798      1.2783569     -247.42798     -246.14962      4.4050876      0             -10637.738     -10879.483     -10869.869     -7773.9098      3.8396199      98.5157        89.284078      208.13937      0.8589335    
       610   3683.6051      640.38597      9.5443446      1.2779473     -247.36015     -246.0822       4.4030087      0             -10637.805     -10879.484     -10869.94      -7772.9694      3.8401814      98.742309      89.434251      208.25577      0.85898858   
       611   3688.8592      635.90624      9.4775785      1.2775408     -247.29476     -246.01721      4.4005426      0             -10637.869     -10879.485     -10870.008     -7771.8269      3.8407395      98.965798      89.581623      208.36625      0.85904541   
       612   3693.9895      631.58631      9.4131941      1.2771372     -247.23188     -245.95474      4.3976897      0             -10637.928     -10879.486     -10870.072     -7770.4833      3.841294       99.18619       89.726279      208.47129      0.85910409   
       613   3699.4379      627.42701      9.3512037      1.2767365     -247.17144     -245.8947       4.3944505      0             -10637.985     -10879.485     -10870.134     -7768.9368      3.8418449      99.403451      89.868132      208.57045      0.85916448   
       614   3704.8924      623.42915      9.2916194      1.2763389     -247.11355     -245.83721      4.3908255      0             -10638.037     -10879.483     -10870.192     -7767.1894      3.8423923      99.617687      90.007334      208.66428      0.85922678   
       615   3710.2904      619.59352      9.2344529      1.2759442     -247.05812     -245.78217      4.3868155      0             -10638.086     -10879.481     -10870.247     -7765.2385      3.8429361      99.828776      90.143729      208.75228      0.85929079   
       616   3715.7089      615.92089      9.1797159      1.2755524     -247.00526     -245.72971      4.3824211      0             -10638.131     -10879.478     -10870.298     -7763.0867      3.8434763      100.03691      90.277534      208.83504      0.85935675   
       617   3721.0811      612.41203      9.1274197      1.2751636     -246.95487     -245.67971      4.377643       0             -10638.172     -10879.474     -10870.347     -7760.7309      3.8440129      100.24188      90.408527      208.91204      0.8594244    
       618   3726.2615      609.06768      9.0775752      1.2747778     -246.90709     -245.63231      4.3724822      0             -10638.21      -10879.47      -10870.392     -7758.1745      3.8445459      100.44396      90.536984      208.98385      0.85949405   
       619   3731.667       605.88855      9.0301935      1.2743949     -246.86179     -245.58739      4.3669395      0             -10638.244     -10879.464     -10870.434     -7755.4139      3.8450752      100.64285      90.662626      209.04995      0.8595654    
       620   3736.9237      602.87537      8.9852849      1.2740149     -246.81913     -245.54511      4.361016       0             -10638.274     -10879.458     -10870.473     -7752.4526      3.8456009      100.83892      90.785781      209.11092      0.85963876   
       621   3742.1622      600.02883      8.9428598      1.2736379     -246.77897     -245.50533      4.3547126      0             -10638.301     -10879.451     -10870.508     -7749.2872      3.8461229      101.03178      90.906117      209.16626      0.85971385   
       622   3746.7059      597.34736      8.902895       1.2732637     -246.75075     -245.47749      4.3480307      0             -10638.331     -10879.461     -10870.558     -7746.1349      3.8466411      101.23149      91.031375      209.21326      0.85980901   
       623   3751.9741      594.83349      8.8654282      1.2728926     -246.7232      -245.45031      4.3409712      0             -10638.337     -10879.446     -10870.58      -7742.7364      3.8471557      101.40589      91.138684      209.26967      0.85989983   
       624   3757.2114      592.49055      8.8305089      1.2725243     -246.68218     -245.40965      4.3335356      0             -10638.354     -10879.43      -10870.6       -7738.7666      3.8476665      101.59227      91.252554      209.30913      0.85996492   
       625   3761.771       590.31483      8.7980818      1.272159      -246.6567      -245.38454      4.3257252      0             -10638.378     -10879.437     -10870.639     -7734.8914      3.8481736      101.78323      91.368877      209.33064      0.86005698   
       626   3767.0932      588.30844      8.7681785      1.2717966     -246.63737     -245.36558      4.3175414      0             -10638.371     -10879.419     -10870.651     -7730.8951      3.8486769      101.94956      91.469149      209.37461      0.86015395   
       627   3772.5432      586.475        8.7408529      1.2714371     -246.60271     -245.33127      4.3089856      0             -10638.378     -10879.4       -10870.659     -7726.2844      3.8491765      102.12733      91.575464      209.39869      0.860222     
       628   3777.1603      584.81055      8.7160459      1.2710805     -246.58225     -245.31117      4.3000596      0             -10638.393     -10879.404     -10870.688     -7721.7373      3.8496722      102.30792      91.68207       209.39677      0.86031484   
       629   3782.3394      583.31711      8.6937875      1.2707268     -246.57267     -245.30194      4.2907649      0             -10638.373     -10879.385     -10870.691     -7717.177       3.8501642      102.46593      91.77554       209.42958      0.8604207    
       630   3787.7079      581.99836      8.6741328      1.2703759     -246.54583     -245.27545      4.2811031      0             -10638.37      -10879.364     -10870.69      -7711.958       3.8506523      102.63536      91.874555      209.43912      0.8604942    
       631   3792.4065      580.85017      8.6570202      1.270028      -246.53082     -245.26079      4.2710762      0             -10638.376     -10879.366     -10870.709     -7706.7482      3.8511366      102.80538      91.971369      209.41403      0.86058848   
       632   3797.8586      579.87451      8.6424788      1.269683      -246.53149     -245.2618       4.2606859      0             -10638.344     -10879.345     -10870.702     -7701.635       3.851617       102.95534      92.058327      209.43648      0.86070401   
       633   3803.3433      579.0751       8.6305645      1.2693409     -246.51309     -245.24375      4.2499341      0             -10638.328     -10879.322     -10870.692     -7695.8216      3.8520936      103.1166       92.150227      209.43191      0.86078395   
       634   3807.9822      578.44769      8.6212134      1.2690016     -246.50366     -245.23466      4.2388228      0             -10638.326     -10879.322     -10870.701     -7689.9524      3.8525662      103.27567      92.236999      209.3838       0.86087978   
       635   3813.4248      577.99417      8.6144541      1.2686652     -246.51461     -245.24594      4.2273541      0             -10638.281     -10879.3       -10870.685     -7684.2871      3.853035       103.41809      92.317805      209.39616      0.86100492   
       636   3818.6934      577.71829      8.6103424      1.2683317     -246.50482     -245.23649      4.2155301      0             -10638.254     -10879.275     -10870.665     -7677.8837      3.8534999      103.57135      92.402689      209.37746      0.8610915    
       637   3823.2757      577.61559      8.6088118      1.2680011     -246.501       -245.233        4.203353       0             -10638.243     -10879.273     -10870.664     -7671.356       3.8539609      103.71941      92.479308      209.30552      0.86118881   
       638   3828.5531      577.68798      8.6098908      1.2676733     -246.52268     -245.25501      4.190825       0             -10638.185     -10879.249     -10870.639     -7665.1497      3.8544179      103.85427      92.554044      209.30856      0.86132423   
       639   3833.8202      577.93927      8.6136359      1.2673484     -246.52173     -245.25438      4.1779485      0             -10638.146     -10879.223     -10870.609     -7658.1624      3.854871       103.99949      92.63192       209.27579      0.86141773   
       640   3838.4178      578.3648       8.619978       1.2670263     -246.52363     -245.2566       4.1647258      0             -10638.126     -10879.218     -10870.598     -7650.9802      3.8553201      104.13617      92.698142      209.18008      0.86151661   
       641   3843.4832      578.96646      8.6289452      1.2667071     -246.55604     -245.28933      4.1511593      0             -10638.055     -10879.193     -10870.564     -7644.2343      3.8557653      104.26379      92.767026      209.1738       0.86166219   
       642   3848.7953      579.74807      8.6405944      1.2663907     -246.56409     -245.2977       4.1372517      0             -10638.005     -10879.165     -10870.525     -7636.6685      3.8562065      104.40104      92.837894      209.12679      0.86176277   
       643   3853.3801      580.70474      8.6548527      1.2660772     -246.57161     -245.30554      4.1230055      0             -10637.976     -10879.159     -10870.504     -7628.8311      3.8566436      104.5262       92.893502      209.00607      0.86186294   
       644   3858.6985      581.83839      8.6717486      1.2657665     -246.61523     -245.34946      4.1084232      0             -10637.892     -10879.133     -10870.461     -7621.5585      3.8570768      104.64659      92.956635      208.9913       0.86201937   
       645   3863.9497      583.15292      8.6913405      1.2654586     -246.63242     -245.36697      4.0935077      0             -10637.829     -10879.103     -10870.412     -7613.4195      3.857506       104.77573      93.02043       208.92994      0.86212716   
       646   3868.5403      584.6432       8.7135516      1.2651536     -246.64577     -245.38061      4.0782617      0             -10637.792     -10879.094     -10870.38      -7604.934       3.8579311      104.889        93.06519       208.78438      0.86222883   
       647   3873.6128      586.31112      8.7384104      1.2648513     -246.70054     -245.43569      4.0626881      0             -10637.694     -10879.067     -10870.328     -7597.1362      3.8583522      105.00238      93.122691      208.7608       0.86239591   
       648   3878.8473      588.16066      8.765976       1.2645519     -246.72713     -245.46258      4.0467897      0             -10637.62      -10879.035     -10870.269     -7588.4325      3.8587692      105.12343      93.179367      208.68489      0.86251121   
       649   3883.4191      590.18636      8.7961672      1.2642554     -246.74611     -245.48185      4.0305694      0             -10637.573     -10879.024     -10870.228     -7579.2976      3.8591822      105.22457      93.212943      208.51287      0.86261395   
       650   3888.6263      592.39018      8.8290129      1.2639616     -246.81258     -245.54862      4.0140305      0             -10637.461     -10878.996     -10870.167     -7570.9901      3.859591       105.331        93.264956      208.48141      0.86279247   
       651   3893.871       594.77621      8.8645745      1.2636706     -246.84863     -245.58496      3.9971758      0             -10637.375     -10878.963     -10870.098     -7561.7268      3.8599958      105.44375      93.314378      208.39061      0.86291528   
       652   3898.4161      597.33867      8.9027656      1.2633824     -246.87356     -245.61018      3.9800085      0             -10637.319     -10878.949     -10870.047     -7551.9534      3.8603965      105.5324       93.336568      208.19255      0.86301948   
       653   3903.5712      600.07954      8.9436156      1.263097      -246.95162     -245.68852      3.9625319      0             -10637.194     -10878.92      -10869.977     -7543.1374      3.8607931      105.63198      93.383093      208.1525       0.86320911   
       654   3908.8584      603.00301      8.9871871      1.2628145     -246.99748     -245.73467      3.9447492      0             -10637.095     -10878.885     -10869.898     -7533.3264      3.8611856      105.73641      93.425189      208.04664      0.86333989   
       655   3913.4463      606.1029       9.0333881      1.2625346     -247.02811     -245.76558      3.9266637      0             -10637.03      -10878.869     -10869.836     -7522.9129      3.861574       105.81221      93.435538      207.82054      0.86344501   
       656   3918.6617      609.38126      9.0822489      1.2622576     -247.11836     -245.8561       3.9082788      0             -10636.891     -10878.839     -10869.757     -7513.6069      3.8619582      105.90506      93.476759      207.77293      0.86364664   
       657   3923.9487      612.84246      9.1338348      1.2619834     -247.17403     -245.91205      3.8895979      0             -10636.78      -10878.802     -10869.668     -7503.2529      3.8623383      106.00087      93.511302      207.6514       0.86378524   
       658   3928.5186      616.47992      9.1880478      1.2617119     -247.2108      -245.94908      3.8706245      0             -10636.705     -10878.784     -10869.596     -7492.2142      3.8627142      106.06348      93.509666      207.39798      0.86389188   
       659   3933.5749      620.29572      9.2449186      1.2614432     -247.31304     -246.0516       3.8513622      0             -10636.552     -10878.752     -10869.507     -7482.4186      3.863086       106.14956      93.545436      207.34164      0.86410502   
       660   3938.9026      624.29438      9.3045147      1.2611772     -247.37899     -246.11781      3.8318145      0             -10636.428     -10878.714     -10869.409     -7471.5374      3.8634536      106.23672      93.572355      207.20433      0.86425209   
       661   3943.4567      628.46883      9.3667311      1.260914      -247.42158     -246.16066      3.8119852      0             -10636.344     -10878.693     -10869.326     -7459.872       3.863817       106.28569      93.558165      206.92126      0.86435959   
       662   3948.7419      632.82124      9.4315996      1.2606536     -247.53649     -246.27584      3.7918779      0             -10636.176     -10878.66      -10869.229     -7449.6082      3.8641763      106.36516      93.588693      206.85725      0.86458523   
       663   3953.9404      637.35637      9.4991914      1.2603959     -247.61262     -246.35222      3.7714963      0             -10636.039     -10878.62      -10869.121     -7438.2037      3.8645313      106.44325      93.60764       206.70324      0.86474047   
       664   3958.4991      642.06667      9.5693939      1.2601409     -247.66158     -246.40144      3.7508444      0             -10635.945     -10878.596     -10869.027     -7425.9302      3.8648822      106.47827      93.580817      206.39149      0.86484961   
       665   3963.7777      646.95434      9.64224        1.2598887     -247.7889      -246.52901      3.7299259      0             -10635.763     -10878.562     -10868.92      -7415.1984      3.8652288      106.55093      93.605799      206.31822      0.86508713   
       666   3969.0706      652.02434      9.7178036      1.2596392     -247.8758      -246.61616      3.7087447      0             -10635.612     -10878.52      -10868.802     -7403.2907      3.8655712      106.61993      93.616732      206.14753      0.86525137   
       667   3973.6391      657.26856      9.7959637      1.2593925     -247.9308      -246.6714       3.6873049      0             -10635.509     -10878.493     -10868.697     -7390.4083      3.8659094      106.64047      93.576608      205.80453      0.86536143   
       668   3978.8748      662.68931      9.8767548      1.2591484     -248.07123     -246.81209      3.6656104      0             -10635.311     -10878.458     -10868.581     -7379.232       3.8662433      106.70647      93.596237      205.72296      0.86561188   
       669   3984.1632      668.29183      9.960255       1.2589071     -248.16871     -246.90981      3.6436654      0             -10635.148     -10878.414     -10868.453     -7366.8243      3.8665731      106.76581      93.598666      205.53428      0.86578465   
       670   3988.731       674.06742      10.046335      1.2586685     -248.23037     -246.97171      3.6214739      0             -10635.034     -10878.384     -10868.338     -7353.3548      3.8668985      106.77161      93.545204      205.16112      0.86589654   
       671   3994.5126      680.0205       10.13506       1.2584326     -248.41206     -247.15362      3.59904        0             -10634.777     -10878.331     -10868.196     -7342.3833      3.8672198      106.86797      93.590584      205.15201      0.86620418   
       672   3999.0452      686.14971      10.22641       1.2581994     -248.45157     -247.19337      3.576368       0             -10634.681     -10878.298     -10868.071     -7327.9185      3.8675367      106.86107      93.522145      204.71702      0.86627186   
       673   4004.1951      692.45227      10.320343      1.2579689     -248.6004      -247.34243      3.5534622      0             -10634.477     -10878.266     -10867.946     -7315.7112      3.8678494      106.89584      93.51692       204.58633      0.86652189   
       674   4009.4863      698.93497      10.416962      1.257741      -248.72453     -247.46679      3.5303267      0             -10634.284     -10878.221     -10867.804     -7302.6942      3.8681578      106.93837      93.506391      204.38146      0.86672422   
       675   4014.0644      705.58821      10.516122      1.2575159     -248.79601     -247.53849      3.5069661      0             -10634.154     -10878.186     -10867.67      -7288.2359      3.868462       106.91812      93.428572      203.94884      0.86683665   
       676   4019.9903      712.41683      10.617896      1.2572934     -249.00745     -247.75015      3.4833845      0             -10633.866     -10878.133     -10867.515     -7276.7361      3.8687619      107.00674      93.46886       203.938        0.86717858   
       677   4024.5281      719.41922      10.72226       1.2570736     -249.05442     -247.79734      3.4595866      0             -10633.755     -10878.093     -10867.371     -7261.2386      3.8690575      106.97028      93.372833      203.43592      0.86724263   
       678   4029.8479      726.59188      10.829162      1.2568565     -249.22492     -247.96806      3.4355766      0             -10633.526     -10878.058     -10867.229     -7248.3289      3.8693488      106.99252      93.357222      203.28736      0.86751296   
       679   4035.1175      733.94258      10.938717      1.256642      -249.3677      -248.11106      3.4113592      0             -10633.309     -10878.009     -10867.07      -7234.5456      3.8696358      107.01758      93.331467      203.05071      0.86773035   
       680   4040.3456      741.46646      11.050853      1.2564302     -249.50356     -248.24713      3.3869388      0             -10633.102     -10877.962     -10866.911     -7220.3679      3.8699185      107.02163      93.285064      202.75474      0.86793351   
       681   4045.6257      749.16168      11.165543      1.256221      -249.65137     -248.39515      3.3623202      0             -10632.882     -10877.915     -10866.749     -7206.2294      3.8701969      107.0271       93.240883      202.47157      0.86815346   
       682   4050.8938      757.02723      11.282772      1.2560145     -249.79226     -248.53625      3.3375077      0             -10632.669     -10877.868     -10866.585     -7191.7001      3.870471       107.01969      93.184186      202.15139      0.86835863   
       683   4056.1472      765.06242      11.402529      1.2558106     -249.94727     -248.69146      3.3125063      0             -10632.441     -10877.82      -10866.417     -7177.2621      3.8707407      107.01516      93.131836      201.85313      0.86858417   
       684   4061.3497      773.26666      11.524805      1.2556094     -250.0976      -248.84199      3.2873204      0             -10632.216     -10877.77      -10866.246     -7162.4866      3.8710062      107.00079      93.069324      201.52289      0.86879842   
       685   4066.5857      781.63908      11.649588      1.2554108     -250.25942     -249.00401      3.2619549      0             -10631.978     -10877.72      -10866.071     -7147.7451      3.8712673      106.9877       93.00926       201.20704      0.86902857   
       686   4071.8863      790.17892      11.776866      1.2552148     -250.41848     -249.16326      3.2364145      0             -10631.742     -10877.669     -10865.892     -7132.7127      3.8715242      106.96573      92.940127      200.86359      0.86925058   
       687   4077.1495      798.88524      11.906626      1.2550214     -250.58705     -249.33203      3.2107041      0             -10631.496     -10877.617     -10865.71      -7117.6716      3.8717766      106.94371      92.871928      200.52884      0.86948513   
       688   4082.4276      807.7572       12.038854      1.2548306     -250.75468     -249.49985      3.1848283      0             -10631.248     -10877.563     -10865.525     -7102.3842      3.8720248      106.9137       92.79577       200.17113      0.86971458   
       689   4088.1202      816.79723      12.173587      1.2546424     -250.98098     -249.72634      3.1587922      0             -10630.934     -10877.501     -10865.328     -7088.212       3.8722686      106.93321      92.764767      199.94068      0.87003674   
       690   4093.1313      825.99969      12.310741      1.2544568     -251.10263     -249.84817      3.1326006      0             -10630.73      -10877.445     -10865.134     -7071.4268      3.8725081      106.85175      92.635524      199.41356      0.87018234   
       691   4098.4483      835.36019      12.45025       1.2542737     -251.28119     -250.02692      3.1062584      0             -10630.474     -10877.395     -10864.944     -7055.7252      3.8727433      106.79795      92.543127      199.04072      0.87042104   
       692   4104.4842      844.88737      12.592244      1.2540933     -251.52715     -250.27305      3.0797706      0             -10630.138     -10877.332     -10864.739     -7041.3416      3.8729741      106.80907      92.507151      198.81164      0.87076575   
       693   4109.9026      854.57459      12.736623      1.2539154     -251.65861     -250.40469      3.0531421      0             -10629.92      -10877.271     -10864.535     -7024.1241      3.8732006      106.71122      92.363144      198.25177      0.87091713   
       694   4115.9717      864.42068      12.883369      1.2537401     -251.90667     -250.65293      3.026378       0             -10629.585     -10877.211     -10864.328     -7009.3563      3.8734227      106.69979      92.310588      197.9981       0.87125941   
       695   4121.2609      874.4251       13.032476      1.2535674     -252.05188     -250.79832      2.9994833      0             -10629.35      -10877.149     -10864.116     -6992.0236      3.8736405      106.59638      92.162831      197.438        0.87142669   
       696   4127.0298      884.5867       13.183925      1.2533972     -252.30879     -251.0554       2.972463       0             -10629.003     -10877.086     -10863.902     -6977.0312      3.8738539      106.57743      92.103425      197.16839      0.87177628   
       697   4132.2662      894.90396      13.337694      1.2532295     -252.45996     -251.20673      2.9453222      0             -10628.759     -10877.02      -10863.683     -6959.4112      3.874063       106.46115      91.943856      196.58074      0.87194624   
       698   4138.2565      905.3757       13.493765      1.2530644     -252.72707     -251.47401      2.918066       0             -10628.4       -10876.956     -10863.462     -6944.2324      3.8742677      106.43444      91.877662      196.29698      0.87230541   
       699   4143.567       916.00048      13.652117      1.2529018     -252.88487     -251.63197      2.8906996      0             -10628.145     -10876.887     -10863.234     -6926.3477      3.8744681      106.30605      91.707164      195.68482      0.87247904   
       700   4149.5958      926.77701      13.812731      1.2527417     -253.16274     -251.90999      2.8632282      0             -10627.773     -10876.819     -10863.007     -6911.0019      3.8746641      106.2717       91.634108      195.38609      0.87284851   
       701   4154.6594      937.70365      13.975582      1.2525842     -253.32649     -252.07391      2.8356567      0             -10627.508     -10876.747     -10862.771     -6892.8445      3.8748558      106.1302       91.451694      194.74659      0.8730246    
       702   4160.6115      948.77905      14.140651      1.2524291     -253.61455     -252.36212      2.8079905      0             -10627.123     -10876.677     -10862.536     -6877.3265      3.8750431      106.08729      91.371058      194.4316       0.87340338   
       703   4166.1486      960.00157      14.307912      1.2522765     -253.78536     -252.53308      2.7802348      0             -10626.848     -10876.6       -10862.293     -6858.9287      3.8752261      105.9332       91.177291      193.76676      0.87358361   
       704   4172.0976      971.36976      14.477344      1.2521264     -254.08446     -252.83233      2.7523948      0             -10626.448     -10876.528     -10862.051     -6843.2655      3.8754047      105.882        91.089187      193.43529      0.87397291   
       705   4177.3092      982.88181      14.64892       1.2519788     -254.26156     -253.00958      2.7244757      0             -10626.162     -10876.447     -10861.798     -6824.618       3.8755789      105.7142       90.882964      192.74197      0.87415595   
       706   4183.1821      994.53614      14.822617      1.2518337     -254.5712      -253.31936      2.6964827      0             -10625.749     -10876.372     -10861.549     -6808.8061      3.8757488      105.65386      90.786672      192.39254      0.87455484   
       707   4188.5918      1006.3309      14.998407      1.251691      -254.75558     -253.50389      2.6684212      0             -10625.452     -10876.287     -10861.289     -6789.9398      3.8759144      105.47271      90.568385      191.67219      0.87474222   
       708   4194.5959      1018.2645      15.176265      1.2515508     -255.07623     -253.82468      2.6402964      0             -10625.024     -10876.209     -10861.032     -6773.9983      3.8760756      105.40302      90.463655      191.30396      0.87515131   
       709   4199.9093      1030.3348      15.356162      1.251413      -255.2674      -254.01598      2.6121137      0             -10624.716     -10876.12      -10860.764     -6754.9101      3.8762324      105.20753      90.232357      190.55399      0.87534208   
       710   4206.5639      1042.5437      15.538124      1.2512776     -255.65593     -254.40465      2.5838782      0             -10624.213     -10876.034     -10860.496     -6740.1452      3.8763849      105.18354      90.167233      190.28406      0.87585301   
       711   4211.7591      1054.8841      15.722045      1.2511446     -255.79975     -254.54861      2.5555954      0             -10623.946     -10875.939     -10860.217     -6719.6053      3.876533       104.92004      89.870783      189.35538      0.87595841   
       712   4217.644       1067.351       15.907853      1.2510141     -256.13567     -254.88466      2.5272706      0             -10623.501     -10875.858     -10859.95      -6703.2783      3.8766768      104.82291      89.745078      188.95511      0.87637766   
       713   4222.9905      1079.948       16.0956        1.2508859     -256.34588     -255.09499      2.498909       0             -10623.165     -10875.761     -10859.665     -6683.899       3.8768162      104.60269      89.492551      188.16363      0.8765841    
       714   4229.7495      1092.6766      16.285307      1.2507602     -256.7591      -255.50834      2.4705161      0             -10622.631     -10875.669     -10859.384     -6668.9806      3.8769513      104.55911      89.410252      187.8571       0.87711899   
       715   4235.0148      1105.5285      16.476852      1.2506368     -256.91769     -255.66706      2.4420972      0             -10622.339     -10875.564     -10859.087     -6648.0698      3.877082       104.26498      89.08606       186.86662      0.87723279   
       716   4241.0814      1118.498       16.670151      1.2505158     -257.27402     -256.0235       2.4136576      0             -10621.865     -10875.475     -10858.805     -6631.5105      3.8772084      104.14531      88.939694      186.41841      0.87766877   
       717   4247.851       1131.6026      16.865461      1.2503971     -257.64348     -256.39309      2.3852027      0             -10621.361     -10875.369     -10858.504     -6615.0728      3.8773305      104.04065      88.796956      185.93599      0.87811768   
       718   4253.3043      1144.8169      17.062408      1.2502808     -257.81049     -256.5602       2.3567379      0             -10621.055     -10875.258     -10858.196     -6593.847       3.8774482      103.70804      88.437091      184.86062      0.87823382   
       719   4260.051       1158.1442      17.261039      1.2501668     -258.24299     -256.99282      2.3282685      0             -10620.497     -10875.162     -10857.901     -6578.5276      3.8775616      103.62653      88.325012      184.50363      0.87878019   
       720   4265.3902      1171.584       17.461346      1.2500551     -258.42361     -257.17355      2.2997998      0             -10620.17      -10875.044     -10857.583     -6557.2906      3.8776706      103.29299      87.9657        183.43808      0.87890992   
       721   4272.0827      1185.1342      17.663299      1.2499458     -258.87348     -257.62353      2.2713373      0             -10619.59      -10874.942     -10857.279     -6542.0496      3.8777753      103.20574      87.84812       183.06859      0.8794755    
       722   4277.8233      1198.8004      17.866981      1.2498387     -259.13207     -257.88223      2.2428863      0             -10619.183     -10874.822     -10856.955     -6522.2755      3.8778757      102.9305       87.54655       182.17362      0.87972377   
       723   4284.608       1212.5727      18.072245      1.2497339     -259.52472     -258.27499      2.2144522      0             -10618.649     -10874.71      -10856.637     -6505.4124      3.8779717      102.76445      87.351689      181.58559      0.88018646   
       724   4290.9073      1226.4478      18.27904       1.2496314     -259.79622     -258.54659      2.1860403      0             -10618.226     -10874.586     -10856.307     -6485.63        3.8780635      102.46729      87.030516      180.64815      0.88044784   
       725   4297.673       1240.4226      18.48732       1.2495312     -260.19813     -258.9486       2.157656       0             -10617.677     -10874.468     -10855.981     -6468.6814      3.8781509      102.28426      86.820004      180.02303      0.88091661   
       726   4303.7143      1254.4933      18.697031      1.2494332     -260.47304     -259.22361      2.1293046      0             -10617.245     -10874.339     -10855.642     -6448.6865      3.878234       101.96294      86.476649      179.03301      0.88117497   
       727   4310.2031      1268.6577      18.908138      1.2493374     -260.8932      -259.64386      2.1009915      0             -10616.673     -10874.216     -10855.308     -6431.8705      3.8783128      101.7713       86.258603      178.39354      0.88166418   
       728   4316.1695      1282.9121      19.120586      1.2492439     -261.17224     -259.923        2.072722       0             -10616.23      -10874.08      -10854.959     -6411.6917      3.8783872      101.42695      85.894031      177.35306      0.88192045   
       729   4322.9362      1297.2537      19.334334      1.2491525     -261.60383     -260.35468      2.0445014      0             -10615.641     -10873.951     -10854.617     -6394.8649      3.8784574      101.21965      85.662075      176.68334      0.88241901   
       730   4328.9899      1311.6792      19.549333      1.2490634     -261.89324     -260.64418      2.0163351      0             -10615.181     -10873.808     -10854.259     -6374.657       3.8785233      100.85759      85.281369      175.60643      0.88268312   
       731   4335.615       1326.1857      19.765538      1.2489764     -262.34141     -261.09244      1.9882284      0             -10614.57      -10873.674     -10853.908     -6357.9495      3.8785848      100.63787      85.03788       174.91035      0.88319896   
       732   4341.684       1340.7693      19.982893      1.2488916     -262.63703     -261.38813      1.9601865      0             -10614.096     -10873.524     -10853.541     -6337.6304      3.8786421      100.25285      84.636036      173.78365      0.8834641    
       733   4348.4391      1355.4266      20.201345      1.2488089     -263.09394     -261.84513      1.9322148      0             -10613.47      -10873.383     -10853.182     -6320.8765      3.8786951      100.0132       84.374609      173.04685      0.88398461   
       734   4354.5417      1370.1541      20.420846      1.2487283     -263.40308     -262.15435      1.9043185      0             -10612.976     -10873.226     -10852.805     -6300.6271      3.8787438      99.611694      83.957848      171.88758      0.8842624    
       735   4361.3001      1384.9485      20.641342      1.2486499     -263.87415     -262.6255       1.8765029      0             -10612.329     -10873.078     -10852.437     -6283.9642      3.8787882      99.355396      83.680917      171.11415      0.88479591   
       736   4367.1601      1399.8055      20.862771      1.2485735     -264.19073     -262.94215      1.8487732      0             -10611.82      -10872.913     -10852.051     -6263.6592      3.8788284      98.930065      83.24223       169.90349      0.88507643   
       737   4373.9317      1414.7213      21.085077      1.2484993     -264.67135     -263.42285      1.8211347      0             -10611.157     -10872.759     -10851.674     -6246.9964      3.8788643      98.652508      82.946022      169.0859       0.88561555   
       738   4380.6233      1429.7016      21.308344      1.2484271     -265.08281     -263.83439      1.7935926      0             -10610.551     -10872.592     -10851.283     -6228.6429      3.8788959      98.295001      82.572074      168.05347      0.88603805   
       739   4386.6359      1444.7237      21.532235      1.2483569     -265.41504     -264.16668      1.766152       0             -10610.016     -10872.417     -10850.884     -6208.3846      3.8789233      97.830229      82.097749      166.76291      0.88633021   
       740   4393.3382      1459.7922      21.756817      1.2482887     -265.91874     -264.67045      1.7388182      0             -10609.32      -10872.251     -10850.494     -6191.9498      3.8789464      97.526734      81.777902      165.89214      0.88689126   
       741   4399.8721      1474.9137      21.982188      1.2482226     -266.34678     -265.09856      1.7115963      0             -10608.685     -10872.072     -10850.09      -6173.6866      3.8789653      97.13647       81.374051      164.7912       0.88732556   
       742   4406.6476      1490.0738      22.208136      1.2481584     -266.77436     -265.52621      1.6844914      0             -10608.049     -10871.891     -10849.682     -6155.3244      3.8789799      96.721526      80.948101      163.64006      0.88775495   
       743   4413.3289      1505.2677      22.434586      1.2480962     -267.21629     -265.96819      1.6575086      0             -10607.395     -10871.705     -10849.271     -6137.2059      3.8789903      96.3043        80.520429      162.4884       0.88820215   
       744   4419.9133      1520.4914      22.661481      1.248036      -267.65966     -266.41163      1.6306531      0             -10606.734     -10871.515     -10848.854     -6119.0403      3.8789965      95.870955      80.077802      161.30063      0.88864659   
       745   4426.3859      1535.7402      22.888749      1.2479776     -268.11232     -266.86434      1.6039299      0             -10606.061     -10871.321     -10848.433     -6101.0107      3.8789985      95.428881      79.627271      160.09572      0.88910069   
       746   4432.9988      1551.0092      23.11632       1.2479212     -268.56786     -267.31994      1.5773441      0             -10605.38      -10871.122     -10848.006     -6082.9753      3.8789962      94.971371      79.162479      158.85687      0.88955425   
       747   4439.6294      1566.2936      23.344119      1.2478667     -269.03132     -267.78345      1.5509006      0             -10604.686     -10870.919     -10847.575     -6065.0534      3.8789898      94.503299      78.688085      157.59659      0.89001523   
       748   4446.5037      1581.5885      23.572075      1.247814      -269.49998     -268.25216      1.5246045      0             -10603.983     -10870.71      -10847.138     -6047.1873      3.8789791      94.021382      78.200912      156.30631      0.89047925   
       749   4453.245       1596.8888      23.80011       1.2477631     -269.97504     -268.72727      1.4984606      0             -10603.268     -10870.497     -10846.697     -6029.409       3.8789642      93.526856      77.702224      154.98973      0.89094819   
       750   4459.9373      1612.1893      24.02815       1.2477141     -270.45672     -269.20901      1.4724741      0             -10602.542     -10870.279     -10846.251     -6011.7281      3.8789452      93.019303      77.191559      153.64547      0.89142233   
       751   4466.7077      1627.4847      24.256114      1.2476668     -270.94411     -269.69645      1.4466496      0             -10601.806     -10870.056     -10845.8       -5994.1282      3.878922       92.49766       76.667937      152.27108      0.8919002    
       752   4473.5834      1642.7696      24.483921      1.2476213     -271.43838     -270.19076      1.4209922      0             -10601.057     -10869.827     -10845.343     -5976.641       3.8788946      91.962603      76.132008      150.86838      0.89238357   
       753   4480.2293      1658.0386      24.711491      1.2475776     -271.93883     -270.69125      1.3955067      0             -10600.298     -10869.594     -10844.882     -5959.2551      3.878863       91.413324      75.583012      149.43542      0.89287132   
       754   4486.6876      1673.286       24.938739      1.2475355     -272.44584     -271.1983       1.3701978      0             -10599.526     -10869.355     -10844.416     -5941.9841      3.8788273      90.849627      75.020773      147.97185      0.89336397   
       755   4493.2895      1688.5061      25.165579      1.2474952     -272.9595      -271.712        1.3450704      0             -10598.743     -10869.11      -10843.944     -5924.8352      3.8787875      90.271477      74.445254      146.47758      0.89386165   
       756   4499.9134      1703.6929      25.391925      1.2474565     -273.4794      -272.23194      1.3201292      0             -10597.948     -10868.86      -10843.468     -5907.8041      3.8787435      89.677898      73.855554      144.95044      0.89436364   
       757   4506.5204      1718.8405      25.617686      1.2474194     -274.00647     -272.75905      1.2953788      0             -10597.14      -10868.604     -10842.986     -5890.917       3.8786953      89.927256      73.252425      143.39239      0.89487135   
       758   4513.1968      1733.9429      25.842772      1.2473839     -274.53952     -273.29213      1.2708241      0             -10596.321     -10868.342     -10842.499     -5874.1516      3.8786431      90.212322      72.634187      141.7992       0.89538286   
       759   4519.8845      1748.9937      26.06709       1.24735       -275.08014     -273.83279      1.2464695      0             -10595.488     -10868.075     -10842.007     -5857.5502      3.8785867      90.495084      72.002251      140.17456      0.89590063   
       760   4526.7819      1763.9866      26.290545      1.2473177     -275.62656     -274.37924      1.2223198      0             -10594.644     -10867.801     -10841.51      -5841.0773      3.8785262      90.774712      71.354354      138.51274      0.89642183   
       761   4534.3062      1778.9218      26.51314       1.2472869     -276.24666     -274.99937      1.1983794      0             -10593.725     -10867.526     -10841.013     -5826.2855      3.8784617      91.061834      70.750334      136.96148      0.89705092   
       762   4541.0954      1793.7841      26.734648      1.2472575     -276.73756     -275.4903       1.1746529      0             -10592.918     -10867.234     -10840.499     -5808.5492      3.878393       91.323         70.00123       135.04671      0.89747539   
       763   4548.3034      1808.5685      26.954995      1.2472296     -277.37589     -276.12866      1.1511448      0             -10591.971     -10866.948     -10839.993     -5794.1953      3.8783202      91.609406      69.377281      133.45858      0.89812149   
       764   4554.9598      1823.2687      27.174088      1.2472031     -277.88329     -276.63609      1.1278595      0             -10591.135     -10866.643     -10839.469     -5776.867       3.8782434      91.865058      68.5997        131.47953      0.89856031   
       765   4562.2187      1837.8776      27.39182       1.247178      -278.53407     -277.28689      1.1048013      0             -10590.162     -10866.344     -10838.952     -5762.8398      3.8781625      92.145622      67.942288      129.8136       0.89921375   
       766   4568.8883      1852.3879      27.608083      1.2471542     -279.05435     -277.8072       1.0819747      0             -10589.299     -10866.024     -10838.416     -5745.8602      3.8780776      92.395514      67.130176      127.75462      0.8996612    
       767   4576.0165      1866.7926      27.82277       1.2471317     -279.72024     -278.47311      1.059384       0             -10588.298     -10865.712     -10837.889     -5732.2444      3.8779886      92.671203      66.439902      126.01276      0.90032592   
       768   4583.3096      1881.0937      28.035914      1.2471105     -280.32696     -279.07985      1.0370334      0             -10587.343     -10865.386     -10837.35      -5717.3119      3.8778956      92.927059      65.666108      124.05848      0.90089405   
       769   4590.0008      1895.2649      28.247123      1.2470906     -280.86566     -279.61857      1.0149271      0             -10586.441     -10865.045     -10836.798     -5700.8793      3.8777985      93.171217      64.795888      121.86544      0.90135296   
       770   4597.3417      1909.3071      28.456409      1.2470718     -281.5516      -280.30453      0.9930694      0             -10585.399     -10864.711     -10836.254     -5687.867       3.8776975      93.43932       64.052547      120.00183      0.90203025   
       771   4604.6732      1923.2233      28.663817      1.2470542     -282.18043     -280.93337      0.9714643      0             -10584.4       -10864.362     -10835.699     -5673.6034      3.8775924      93.687277      63.224898      117.92349      0.90261438   
       772   4611.3327      1936.9863      28.868941      1.2470377     -282.73995     -281.49292      0.95011592     0             -10583.456     -10863.999     -10835.13      -5657.8297      3.8774834      93.922476      62.298755      115.6015       0.90308773   
       773   4618.7102      1950.5966      29.07179       1.2470223     -283.44805     -282.20103      0.92902831     0             -10582.37      -10863.642     -10834.57      -5645.5259      3.8773703      94.183108      61.499164      113.6077       0.90378035   
       774   4625.9409      1964.057       29.272404      1.247008      -284.09943     -282.85243      0.90820543     0             -10581.326     -10863.27      -10833.998     -5631.9994      3.8772533      94.423135      60.614283      111.39733      0.90438075   
       775   4633.302       1977.3494      29.470515      1.2469946     -284.7526      -283.5056       0.88765122     0             -10580.273     -10862.89      -10833.42      -5618.6005      3.8771323      94.662859      60.110324      109.12337      0.90497808   
       776   4640.7077      1990.4646      29.665985      1.2469822     -285.41527     -284.16828      0.86736957     0             -10579.202     -10862.503     -10832.837     -5605.5129      3.8770074      94.900389      60.237588      106.81022      0.90558365   
       777   4648.0925      2003.3942      29.858689      1.2469707     -286.0814      -284.83443      0.84736429     0             -10578.119     -10862.106     -10832.247     -5592.6057      3.8768785      95.134694      60.362837      104.44072      0.90618835   
       778   4655.4269      2016.1301      30.048505      1.2469601     -286.76219     -285.51523      0.82763918     0             -10577.014     -10861.702     -10831.653     -5580.1409      3.8767457      95.367108      60.486985      102.04174      0.90680888   
       779   4662.8671      2028.6637      30.235305      1.2469503     -287.44451     -286.19756      0.80819795     0             -10575.899     -10861.288     -10831.053     -5567.8256      3.8766089      95.595827      60.608543      99.576884      0.90742558   
       780   4670.1356      2040.9857      30.418953      1.2469413     -288.13851     -286.89157      0.78904428     0             -10574.763     -10860.866     -10830.447     -5555.8992      3.8764683      95.82248       60.728883      97.073056      0.9080536    
       781   4677.391       2053.0873      30.599316      1.246933      -288.83658     -287.58964      0.77018178     0             -10573.615     -10860.435     -10829.835     -5544.1947      3.8763237      96.045862      60.847033      94.508775      0.9086815    
       782   4684.648       2064.9594      30.776258      1.2469253     -289.54594     -288.29901      0.75161402     0             -10572.447     -10859.995     -10829.218     -5532.8844      3.8761753      96.267042      60.963826      91.902241      0.90932003   
       783   4692.0244      2076.5928      30.949643      1.2469183     -290.25964     -289.01272      0.7333445      0             -10571.266     -10859.545     -10828.595     -5521.8169      3.876023       96.484978      61.078451      89.23403       0.90995879   
       784   4699.2555      2087.9782      31.119332      1.2469119     -290.98409     -289.73718      0.71537668     0             -10570.065     -10859.087     -10827.967     -5511.1458      3.8758668      96.700638      61.191664      86.52027       0.91060725   
       785   4706.8408      2099.1062      31.285184      1.2469059     -291.71346     -290.46655      0.69771394     0             -10568.849     -10858.618     -10827.333     -5500.7455      3.8757067      96.913106      61.302765      83.744573      0.91125674   
       786   4714.0684      2109.9673      31.447059      1.2469005     -292.45337     -291.20647      0.68035962     0             -10567.615     -10858.141     -10826.694     -5490.7522      3.8755429      97.123273      61.412431      80.9209        0.91191553   
       787   4721.298       2120.5519      31.604812      1.2468954     -293.19856     -291.95166      0.66331701     0             -10566.365     -10857.653     -10826.048     -5481.0527      3.8753751      97.33027       61.520012      78.034397      0.91257579   
       788   4728.2821      2130.8504      31.758301      1.2468907     -293.95396     -292.70707      0.64658931     0             -10565.095     -10857.156     -10825.398     -5471.7678      3.8752036      97.534871      61.626086      75.097207      0.91324478   
       789   4735.7457      2140.8528      31.907378      1.2468863     -294.71468     -293.4678       0.63017969     0             -10563.811     -10856.648     -10824.741     -5462.7935      3.8750283      97.736234      61.730032      72.095557      0.91391525   
       790   4743.0463      2150.5496      32.051899      1.2468821     -295.48598     -294.2391       0.61409125     0             -10562.506     -10856.131     -10824.079     -5454.2574      3.8748491      97.935366      61.832599      69.04236       0.91459488   
       791   4750.3749      2159.9307      32.191716      1.2468781     -296.26286     -295.01599      0.59832703     0             -10561.185     -10855.603     -10823.411     -5446.0531      3.8746662      98.13125       61.933041      65.923658      0.9152763    
       792   4757.4642      2168.9862      32.32668       1.2468742     -297.04967     -295.8028       0.58288999     0             -10559.845     -10855.065     -10822.738     -5438.2878      3.8744795      98.324653      62.031916      62.749933      0.91596585   
       793   4764.7205      2177.7062      32.456642      1.2468704     -297.84245     -296.59558      0.56778307     0             -10558.488     -10854.515     -10822.059     -5430.879       3.8742891      98.514918      62.128754      59.510025      0.91665771   
       794   4772.061       2186.0804      32.581453      1.2468666     -298.64504     -297.39817      0.55300911     0             -10557.111     -10853.956     -10821.374     -5423.9222      3.8740949      98.702652      62.223996      56.213138      0.91735743   
       795   4779.3732      2194.099       32.700961      1.2468626     -299.45377     -298.20691      0.5385709      0             -10555.717     -10853.385     -10820.684     -5417.3417      3.8742063      98.887238      62.317203      52.848893      0.91805966   
       796   4786.5686      2201.7516      32.815017      1.2468586     -300.2722      -299.02535      0.52447116     0             -10554.303     -10852.804     -10819.989     -5411.2267      3.8743405      99.06925       62.408785      49.425794      0.91876954   
       797   4794.1071      2209.0283      32.923468      1.2468543     -301.09663     -299.84978      0.51071257     0             -10552.872     -10852.211     -10819.287     -5405.5004      3.8744713      99.247997      62.498254      45.933403      0.91948165   
       798   4801.3864      2215.9187      33.026164      1.2468497     -301.93117     -300.68432      0.49729772     0             -10551.42      -10851.607     -10818.581     -5400.2647      3.874599       99.424332      62.586222      42.381715      0.92020193   
       799   4808.7408      2222.413       33.122954      1.2468448     -302.77183     -301.52499      0.48422914     0             -10549.951     -10850.992     -10817.869     -5395.4366      3.8747233      99.597374      62.672064      42.077466      0.9209246    
       800   4816.1049      2228.5008      33.213687      1.2468395     -303.62205     -302.37521      0.47150929     0             -10548.461     -10850.365     -10817.151     -5391.1023      3.8748444      99.767768      62.756236      42.164056      0.92165457   
       801   4823.4931      2234.172       33.298212      1.2468336     -304.47847     -303.23164      0.45914059     0             -10546.954     -10849.726     -10816.428     -5387.1933      3.8749622      99.934875      62.838294      42.249974      0.92238701   
       802   4830.6549      2239.4167      33.376379      1.2468272     -305.3447      -304.09787      0.44712537     0             -10545.425     -10849.076     -10815.7       -5383.7997      3.8750768      100.09943      62.918757      42.33483       0.92312707   
       803   4838.1615      2244.2248      33.448039      1.2468202     -306.21708     -304.97026      0.43546589     0             -10543.879     -10848.414     -10814.966     -5380.8461      3.8751882      100.2606       62.997052      42.418973      0.9238695    
       804   4845.5743      2248.5864      33.513044      1.2468124     -307.09903     -305.85221      0.42416435     0             -10542.312     -10847.74      -10814.227     -5378.4178      3.8752962      100.41912      63.073681      42.502047      0.92461915   
       805   4852.9919      2252.4915      33.571246      1.2468038     -307.98719     -306.74038      0.4132229      0             -10540.727     -10847.054     -10813.483     -5376.4464      3.8754011      100.57426      63.148149      42.584374      0.92537123   
       806   4860.3282      2255.9304      33.622499      1.2467943     -308.88466     -307.63787      0.40264359     0             -10539.121     -10846.356     -10812.733     -5375.0103      3.8755026      100.72664      63.220888      42.665619      0.92613017   
       807   4867.8576      2258.8933      33.666659      1.2467838     -309.78841     -308.54163      0.39242842     0             -10537.496     -10845.645     -10811.979     -5374.0475      3.8756009      100.87564      63.291471      42.74608       0.92689161   
       808   4875.0805      2261.3707      33.703582      1.2467723     -310.7012      -309.45443      0.38257932     0             -10535.851     -10844.922     -10811.219     -5373.629       3.875696       101.02177      63.360254      42.825442      0.92765948   
       809   4882.2238      2263.3531      33.733129      1.2467596     -311.62026     -310.3735       0.37309815     0             -10534.187     -10844.187     -10810.454     -5373.6989      3.8757878      101.16449      63.426874      47.060556      0.92842986   
       810   4889.5729      2264.8313      33.755159      1.2467457     -312.54817     -311.30143      0.36398669     0             -10532.502     -10843.439     -10809.684     -5374.3235      3.8758764      101.30426      63.491649      51.54802       0.92920641   
       811   4896.8937      2265.796       33.769537      1.2467305     -313.48231     -312.23558      0.35524667     0             -10530.799     -10842.679     -10808.909     -5375.4499      3.8759617      101.44058      63.554236      56.103325      0.92998541   
       812   4904.1677      2266.2384      33.776131      1.2467139     -314.42513     -313.17842      0.34687974     0             -10529.075     -10841.906     -10808.13      -5377.1417      3.8760438      101.57388      63.614943      60.733782      0.93077035   
       813   4911.107       2266.1497      33.774809      1.2466958     -315.37409     -314.1274       0.33888746     0             -10527.332     -10841.12      -10807.345     -5379.3473      3.8761227      101.70368      63.673431      65.432656      0.93155765   
       814   4918.4081      2265.5215      33.765446      1.246676      -316.33158     -315.0849       0.33127135     0             -10525.568     -10840.322     -10806.557     -5382.1284      3.8761983      101.8304       63.730001      70.207045      0.93235068   
       815   4925.9749      2264.3454      33.747918      1.2466546     -317.29534     -316.04869      0.32403285     0             -10523.786     -10839.511     -10805.763     -5385.4399      3.8762707      101.95365      63.784389      75.049476      0.93314632   
       816   4933.2657      2262.6136      33.722107      1.2466315     -318.26697     -317.02034      0.31717331     0             -10521.984     -10838.687     -10804.965     -5389.3246      3.8763398      102.07355      64.122517      79.968726      0.93394679   
       817   4940.3492      2260.3183      33.687898      1.2466064     -319.2447      -317.9981       0.31069403     0             -10520.163     -10837.85      -10804.162     -5393.7487      3.8764057      102.18992      66.236772      84.956844      0.93474968   
       818   4947.5451      2257.4522      33.645181      1.2465793     -320.23054     -318.98397      0.30459624     0             -10518.321     -10837         -10803.355     -5398.7639      3.8764684      102.30307      68.382895      90.020328      0.93555781   
       819   4954.8368      2254.0082      33.593851      1.2465502     -321.22214     -319.97559      0.29888107     0             -10516.461     -10836.138     -10802.544     -5404.322       3.8765278      102.41251      70.557971      95.152512      0.93636793   
       820   4962.4785      2249.9796      33.533809      1.2465189     -322.22161     -320.97509      0.29354961     0             -10514.581     -10835.263     -10801.729     -5410.4773      3.8765841      102.51865      72.765009      100.36018      0.93718304   
       821   4970.1946      2245.3603      33.464962      1.2464852     -323.22712     -321.98064      0.28860285     0             -10512.683     -10834.375     -10800.91      -5417.1929      3.8766371      102.62121      75.000392      105.63465      0.93800064   
       822   4977.7413      2240.1442      33.387222      1.2464492     -324.23929     -322.99284      0.28404173     0             -10510.765     -10833.474     -10800.087     -5424.4881      3.8766868      104.76686      77.268265      110.98634      0.93882162   
       823   4985.3255      2234.326       33.300506      1.2464107     -325.25722     -324.01081      0.2798671      0             -10508.83      -10832.56      -10799.26      -5432.3469      3.8767334      107.27474      79.564567      116.40544      0.9396448    
       824   4992.5935      2227.9005      33.204741      1.2463695     -326.28245     -325.03608      0.27607975     0             -10506.874     -10831.634     -10798.43      -5440.8089      3.8767768      109.81702      81.892272      121.89808      0.94047236   
       825   4999.6305      2220.8633      33.099858      1.2463257     -327.31279     -326.06646      0.27268038     0             -10504.902     -10830.696     -10797.596     -5449.8282      3.8768169      112.38827      84.247954      127.4571       0.94130135   
       826   5006.9497      2213.2104      32.985799      1.246279      -328.35012     -327.10384      0.26966964     0             -10502.91      -10829.745     -10796.759     -5459.4516      3.8768539      114.99372      86.634905      133.08937      0.94213444   
       827   5014.4147      2204.9383      32.862512      1.2462293     -329.39223     -328.146        0.26704808     0             -10500.902     -10828.781     -10795.919     -5469.6316      3.8768876      117.62748      89.04925       138.7867       0.94296865   
       828   5021.8615      2196.0441      32.729952      1.2461766     -330.441       -329.19482      0.2648162      0             -10498.875     -10827.805     -10795.075     -5480.4144      3.8769181      120.29493      91.494345      144.55583      0.94380664   
       829   5028.9425      2186.5254      32.588085      1.2461207     -331.49426     -330.24814      0.26297441     0             -10496.832     -10826.818     -10794.229     -5491.7528      3.8769455      122.98981      93.966015      150.38813      0.94464554   
       830   5036.333       2176.3805      32.436885      1.2460614     -332.55384     -331.30778      0.26152304     0             -10494.772     -10825.818     -10793.381     -5503.6907      3.8769696      125.71769      96.467752      156.29041      0.94548792   
       831   5043.8789      2165.6083      32.276336      1.2459988     -333.61758     -332.37158      0.26046237     0             -10492.695     -10824.806     -10792.53      -5516.1806      3.8769906      128.47185      98.995055      162.25353      0.94633095   
       832   5051.2442      2154.2084      32.10643       1.2459326     -334.68724     -333.44131      0.25979259     0             -10490.601     -10823.783     -10791.677     -5529.2639      3.8770084      131.25816      101.55161      168.28451      0.94717711   
       833   5058.5465      2142.181       31.927173      1.2458628     -335.76069     -334.51483      0.25951382     0             -10488.493     -10822.748     -10790.821     -5542.8926      3.877023       134.06945      104.13258      174.37368      0.94802362   
       834   5065.9291      2129.5271      31.738578      1.2457891     -336.83961     -335.59382      0.2596261      0             -10486.368     -10821.703     -10789.964     -5557.1056      3.8770344      136.91188      106.74185      180.52829      0.94887288   
       835   5073.2519      2116.2483      31.540671      1.2457116     -337.92192     -336.67621      0.26012941     0             -10484.23      -10820.646     -10789.105     -5571.855       3.8770427      139.77778      109.37419      186.73799      0.9497222    
       836   5080.6107      2102.3471      31.333487      1.24563       -339.00887     -337.76324      0.26102363     0             -10482.076     -10819.578     -10788.245     -5587.1687      3.8770478      142.67382      112.03399      193.01135      0.95057338   
       837   5087.6633      2087.8268      31.117076      1.2455442     -340.0995      -338.85395      0.26230859     0             -10479.909     -10818.5       -10787.383     -5603.0234      3.8770497      145.59123      114.71473      199.33434      0.95142528   
       838   5095.085       2072.6915      30.891498      1.2454542     -341.19433     -339.94887      0.26398403     0             -10477.728     -10817.413     -10786.521     -5619.4292      3.8770485      148.53715      117.42134      205.71673      0.95227871   
       839   5102.3571      2056.9461      30.656827      1.2453597     -342.29168     -341.04632      0.26604964     0             -10475.534     -10816.315     -10785.658     -5636.3452      3.8770441      151.50284      120.1478       212.14702      0.95313159   
       840   5109.9487      2040.5962      30.413148      1.2452607     -343.39283     -342.14757      0.268505       0             -10473.328     -10815.207     -10784.794     -5653.7977      3.8770366      154.49547      122.89868      218.63329      0.95398576   
       841   5116.4914      2023.6365      30.16038       1.245157      -344.40712     -343.16196      0.27134965     0             -10471.184     -10814.075     -10783.914     -5669.7193      3.8770259      157.58297      125.72795      225.29793      0.95472057   
       842   5123.818       2006.0868      29.898819      1.2450484     -345.60022     -344.35517      0.27458303     0             -10468.883     -10812.964     -10783.065     -5690.1695      3.8770121      160.54863      128.46566      231.76777      0.95568931   
       843   5130.379       1987.9557      29.628592      1.2449349     -346.62166     -345.37672      0.27820452     0             -10466.717     -10811.815     -10782.186     -5707.1328      3.8769951      163.67015      131.32795      238.50534      0.95642778   
       844   5137.7857      1969.2519      29.34983       1.2448163     -347.81507     -346.57025      0.28221343     0             -10464.4       -10810.688     -10781.338     -5728.4585      3.8769751      166.67452      134.10094      245.05252      0.95739045   
       845   5144.6285      1949.9861      29.06269       1.2446925     -348.84181     -347.59711      0.28660898     0             -10462.213     -10809.524     -10780.461     -5746.4001      3.8769519      169.83534      136.99798      251.86045      0.95813051   
       846   5152.1112      1930.17        28.767351      1.2445633     -350.04617     -348.80161      0.29139033     0             -10459.874     -10808.384     -10779.617     -5768.8197      3.8769256      172.85728      139.79868      258.49963      0.95910179   
       847   5158.6673      1909.8156      28.463987      1.2444286     -351.07154     -349.82711      0.29655656     0             -10457.675     -10807.206     -10778.742     -5787.5592      3.8768962      176.05846      142.73204      265.38893      0.95983538   
       848   5165.9905      1888.9353      28.152786      1.2442883     -352.26905     -351.02477      0.30210669     0             -10455.33      -10806.052     -10777.9       -5810.6366      3.8768637      179.11424      145.55545      272.05682      0.96079243   
       849   5172.5634      1867.5438      27.833967      1.2441422     -353.2992      -352.05506      0.30803964     0             -10453.116     -10804.863     -10777.029     -5830.2828      3.8768281      182.33723      148.51325      279.00992      0.96152832   
       850   5178.963       1845.6478      27.507627      1.2439901     -354.41799     -353.174        0.31435429     0             -10450.824     -10803.684     -10776.176     -5852.3458      3.8767894      185.48708      151.40298      285.7991       0.96237774   
       851   5185.6185      1823.2738      27.174165      1.2438321     -355.52633     -354.2825       0.32104942     0             -10448.537     -10802.499     -10775.325     -5874.5434      3.8767476      188.64921      154.32084      292.68974      0.96321228   
       852   5192.2887      1800.4371      26.833804      1.2436678     -356.63718     -355.39351      0.32812375     0             -10446.245     -10801.311     -10774.477     -5897.1621      3.8767028      191.82487      157.24676      299.58322      0.96404882   
       853   5199.0611      1777.1564      26.486829      1.2434972     -357.74963     -356.50614      0.33557593     0             -10443.95      -10800.12      -10773.634     -5920.1695      3.8766549      194.99525      160.1717       306.48171      0.96488643   
       854   5205.7601      1753.4513      26.133526      1.2433201     -358.85918     -357.61586      0.34340453     0             -10441.655     -10798.928     -10772.794     -5943.4499      3.8766039      198.17789      163.10674      313.39903      0.96571941   
       855   5212.3375      1729.3422      25.774202      1.2431364     -359.96928     -358.72614      0.35160806     0             -10439.359     -10797.733     -10771.959     -5967.0694      3.8765499      201.35124      166.03635      320.30985      0.96655251   
       856   5218.9278      1704.8504      25.409177      1.242946      -361.07535     -359.83241      0.36018494     0             -10437.066     -10796.538     -10771.129     -5990.9096      3.8764928      204.53438      168.9733       327.23148      0.96738002   
       857   5225.4783      1679.9986      25.038783      1.2427486     -362.18112     -360.93837      0.36913354     0             -10434.773     -10795.342     -10770.304     -6015.0411      3.8764327      207.7031       171.90082      334.1399       0.96820702   
       858   5232.0378      1654.81        24.663371      1.2425443     -363.28124     -362.0387       0.37845215     0             -10432.487     -10794.147     -10769.484     -6039.3267      3.8763696      210.87934      174.83324      341.05207      0.96902686   
       859   5238.4484      1629.309       24.283303      1.2423327     -364.38077     -363.13843      0.38813898     0             -10430.203     -10792.953     -10768.67      -6063.866       3.8763035      214.0358       177.75142      347.94039      0.96984635   
       860   5245.1055      1603.521       23.898958      1.2421139     -365.47322     -364.23111      0.39819219     0             -10427.928     -10791.761     -10767.862     -6088.4948      3.8762343      217.19647      180.67179      354.82702      0.97065742   
       861   5251.7425      1577.4723      23.510726      1.2418875     -366.56453     -365.32264      0.40860984     0             -10425.657     -10790.571     -10767.061     -6113.3311      3.8761621      220.33268      183.57317      361.67745      0.97146797   
       862   5257.7158      1551.1747      23.118785      1.2416537     -367.51586     -366.27421      0.41938996     0             -10423.503     -10789.358     -10766.24      -6135.1948      3.8760869      223.56804      186.60959      368.9815       0.9721       
       863   5264.3756      1524.671       22.723773      1.241412      -368.71641     -367.475        0.43053048     0             -10421.155     -10788.199     -10765.475     -6162.953       3.8760088      226.59041      189.37318      375.42128      0.97305215   
       864   5270.4186      1497.9904      22.326125      1.2411625     -369.65735     -368.41618      0.44202927     0             -10419.022     -10786.996     -10764.67      -6184.9565      3.8759277      229.79414      192.37284      382.59704      0.9736754    
       865   5277.0155      1471.1638      21.926299      1.240905      -370.85664     -369.61573      0.45388414     0             -10416.69      -10785.851     -10763.925     -6213.0242      3.8758436      232.75999      195.08468      388.90539      0.97462987   
       866   5282.918       1444.2212      21.524746      1.2406394     -371.78183     -370.54119      0.46609281     0             -10414.586     -10784.661     -10763.136     -6234.9661      3.8757565      235.92109      198.05234      396.02357      0.97523825   
       867   5289.5928      1417.1944      21.121937      1.2403655     -372.96996     -371.7296       0.47865297     0             -10412.282     -10783.532     -10762.411     -6263.0365      3.8756665      238.84223      200.72405      402.23713      0.97618334   
       868   5295.5606      1390.1161      20.71836       1.2400832     -373.88503     -372.64495      0.49156221     0             -10410.206     -10782.36      -10761.641     -6284.9626      3.8755736      241.94498      203.64154      409.24607      0.97678511   
       869   5302.051       1363.0185      20.314496      1.2397924     -375.05394     -373.81415      0.50481805     0             -10407.94      -10781.249     -10760.935     -6312.7663      3.8754777      244.80869      206.25952      415.3259       0.97771183   
       870   5307.9707      1335.9354      19.910848      1.2394929     -375.95411     -374.71462      0.51841798     0             -10405.901     -10780.097     -10760.186     -6334.4814      3.8753789      247.84248      209.12165      422.22736      0.97830208   
       871   5314.5959      1308.9002      19.507914      1.2391847     -377.09896     -375.85977      0.53235938     0             -10403.681     -10779.008     -10759.5       -6361.8203      3.8752772      250.65279      211.68966      428.18512      0.97920556   
       872   5320.5258      1281.9477      19.106212      1.2388675     -377.98298     -376.74412      0.54663961     0             -10401.682     -10777.88      -10758.773     -6383.2066      3.8751726      253.60909      214.48503      434.94127      0.97978395   
       873   5327.1032      1255.113       18.706267      1.2385413     -379.11043     -377.87189      0.56125592     0             -10399.507     -10776.818     -10758.112     -6410.1421      3.8750651      256.32825      216.97653      440.73847      0.98067406   
       874   5332.3345      1228.4176      18.308398      1.2382059     -379.83717     -378.59896      0.57620553     0             -10397.665     -10775.688     -10757.38      -6427.8904      3.8749547      259.23092      219.80143      447.76892      0.98106386   
       875   5338.3743      1201.8997      17.913173      1.2378613     -380.92361     -379.68575      0.59148558     0             -10395.553     -10774.648     -10756.735     -6453.8067      3.8748415      262.01357      222.28091      453.40925      0.98190951   
       876   5343.6833      1175.6076      17.521314      1.2375073     -381.74303     -380.50553      0.60709315     0             -10393.675     -10773.573     -10756.052     -6473.5339      3.8747254      264.69791      224.87053      459.79678      0.98242735   
       877   5349.6518      1149.5779      17.133366      1.2371437     -382.83148     -381.59433      0.62302526     0             -10391.604     -10772.575     -10755.442     -6499.3         3.8746065      267.35229      227.26523      465.28464      0.98328813   
       878   5355.0247      1123.8471      16.749874      1.2367705     -383.63106     -382.39429      0.63927886     0             -10389.784     -10771.539     -10754.789     -6518.3297      3.8744847      269.91477      229.74462      471.40711      0.98379418   
       879   5360.8637      1098.4517      16.371379      1.2363876     -384.6962      -383.45981      0.65585085     0             -10387.777     -10770.581     -10754.209     -6543.2706      3.8743602      272.45108      232.04282      476.69969      0.98463863   
       880   5365.9845      1073.4286      15.998434      1.2359949     -385.47308     -384.23708      0.67273806     0             -10386.02      -10769.585     -10753.586     -6561.4405      3.8742328      274.89526      234.41714      482.58369      0.98513005   
       881   5371.9859      1048.8145      15.631585      1.2355922     -386.51343     -385.27784      0.68993727     0             -10384.082     -10768.67      -10753.038     -6585.4254      3.8741026      277.32321      236.61497      487.6343       0.98595744   
       882   5377.2381      1024.6461      15.271378      1.2351794     -387.26547     -386.03029      0.70744518     0             -10382.395     -10767.718     -10752.447     -6602.5892      3.8739697      279.6077       238.85724      493.25673      0.98643273   
       883   5382.4922      1000.9482      14.918183      1.2347565     -388.11145     -386.87669      0.72525845     0             -10380.659     -10766.81      -10751.892     -6621.6526      3.873834       281.93153      241.01571      498.39296      0.98703121   
       884   5387.6676      977.76818      14.572706      1.2343234     -388.95902     -387.72469      0.74337368     0             -10378.951     -10765.932     -10751.359     -6640.4733      3.8736955      284.11695      243.08675      503.42126      0.98764054   
       885   5392.8657      955.14155      14.235478      1.23388       -389.7937      -388.55982      0.7617874      0             -10377.282     -10765.08      -10750.845     -6658.6968      3.8735543      286.25604      245.10535      508.28333      0.98824259   
       886   5398.0662      933.10389      13.907027      1.2334261     -390.6202      -389.38677      0.78049609     0             -10375.651     -10764.257     -10750.35      -6676.4073      3.8734104      288.29583      247.04514      512.99955      0.9888434    
       887   5403.1913      911.68972      13.587869      1.2329617     -391.42417     -390.19121      0.79949618     0             -10374.068     -10763.46      -10749.872     -6693.254       3.8732638      290.27208      248.92277      517.55228      0.98942529   
       888   5408.3269      890.93318      13.278513      1.2324867     -392.21967     -390.98719      0.81878403     0             -10372.524     -10762.693     -10749.414     -6709.5355      3.8731144      292.15901      250.72504      521.9537       0.99000597   
       889   5413.466       870.86765      12.979455      1.2320011     -392.99104     -391.75904      0.83835596     0             -10371.032     -10761.953     -10748.974     -6724.8719      3.8729624      293.96879      252.45517      526.17759      0.9905663    
       890   5418.4078      851.52566      12.691181      1.2315048     -393.75138     -392.51987      0.85820822     0             -10369.583     -10761.245     -10748.554     -6739.5409      3.8728078      295.6935       254.11214      530.24978      0.99112276   
       891   5423.534       832.93898      12.414164      1.2309976     -394.48822     -393.25722      0.87833702     0             -10368.188     -10760.567     -10748.152     -6753.2368      3.8726504      297.33095      255.68842      534.12852      0.9916602    
       892   5428.6458      815.1383       12.148862      1.2304796     -395.21075     -393.98027      0.8987385      0             -10366.839     -10759.92      -10747.772     -6766.1492      3.8724905      298.88447      257.19238      537.85588      0.99219025   
       893   5433.8337      798.15345      11.895719      1.2299507     -395.91117     -394.68122      0.91940876     0             -10365.544     -10759.306     -10747.41      -6778.0804      3.8723279      300.34394      258.60901      541.37478      0.99270354   
       894   5438.9567      782.01304      11.655162      1.2294108     -396.59401     -395.3646       0.94034386     0             -10364.301     -10758.725     -10747.07      -6789.1148      3.8721627      301.71793      259.95272      544.74218      0.9932059    
       895   5444.1168      766.74466      11.427601      1.2288598     -397.25623     -396.02737      0.96153978     0             -10363.111     -10758.177     -10746.75      -6799.1646      3.8719949      302.9939       261.20435      547.88841      0.99369384   
       896   5449.0298      752.37454      11.213428      1.2282978     -397.89799     -396.66969      0.98299247     0             -10361.977     -10757.664     -10746.451     -6808.2168      3.8718246      304.18062      262.38107      550.88193      0.99416778   
       897   5454.1093      738.92776      11.013016      1.2277247     -398.52029     -397.29257      1.0046978      0             -10360.898     -10757.186     -10746.173     -6816.2771      3.8716517      305.26738      263.46258      553.64428      0.99462921   
       898   5459.221       726.42792      10.826718      1.2271404     -399.11992     -397.89278      1.0266517      0             -10359.877     -10756.743     -10745.917     -6823.257       3.8714763      306.25952      264.46611      556.25153      0.99507434   
       899   5463.6634      714.8897       10.654752      1.2265449     -399.54258     -398.31603      1.0488499      0             -10359.028     -10756.295     -10745.641     -6825.6206      3.8712983      307.34668      265.51636      558.73123      0.99531072   
       900   5468.7926      704.34091      10.497532      1.2259382     -400.22149     -398.99556      1.0712881      0             -10358.03      -10755.954     -10745.456     -6833.2511      3.8711178      307.90385      266.17344      560.85914      0.99587688   
       901   5473.8551      694.80874      10.355464      1.2253203     -400.77971     -399.55439      1.0939621      0             -10357.17      -10755.63      -10745.275     -6837.5149      3.8709349      308.64399      266.93269      562.83918      0.99630906   
       902   5478.0614      686.29727      10.228609      1.224691      -401.12715     -399.90246      1.1168676      0             -10356.505     -10755.291     -10745.062     -6836.351       3.8707495      309.46078      267.74759      564.75718      0.99648963   
       903   5483.1695      678.8283       10.117291      1.2240506     -401.75382     -400.52977      1.14           0             -10355.677     -10755.067     -10744.95      -6840.9446      3.8705616      309.63516      268.07081      566.20374      0.99702911   
       904   5487.6945      672.41696      10.021736      1.2233988     -402.06511     -400.84171      1.1633551      0             -10355.129     -10754.807     -10744.785     -6837.6958      3.8703713      310.35847      268.77381      567.74573      0.99719133   
       905   5492.7511      667.07678      9.9421458      1.2227357     -402.67523     -401.45249      1.1869284      0             -10354.405     -10754.671     -10744.729     -6840.6343      3.8701786      310.27638      268.87668      568.751        0.99773745   
       906   5497.2139      662.81812      9.8786745      1.2220614     -402.93568     -401.71362      1.2107152      0             -10353.985     -10754.488     -10744.609     -6834.9314      3.8699835      310.73852      269.37368      569.87733      0.99786304   
       907   5502.351       659.65015      9.831459       1.2213757     -403.48937     -402.26799      1.2347112      0             -10353.394     -10754.428     -10744.596     -6835.2755      3.8697861      310.50854      269.30888      570.41819      0.99836563   
       908   5506.5839      657.58019      9.8006082      1.2206788     -403.71307     -402.49239      1.2589116      0             -10353.092     -10754.325     -10744.524     -6827.4181      3.8695863      310.69403      269.58688      571.12884      0.99847206   
       909   5511.71        656.61376      9.7862044      1.2199706     -404.21429     -402.99432      1.2833119      0             -10352.633     -10754.344     -10744.558     -6825.2411      3.8693841      310.26         269.33633      571.26259      0.99893668   
       910   5516.1877      656.75452      9.7883023      1.2192511     -404.40156     -403.18231      1.3079073      0             -10352.448     -10754.323     -10744.535     -6815.2235      3.8691797      310.1908       269.402        571.53153      0.99902471   
       911   5521.4747      658.00429      9.806929       1.2185205     -404.85659     -403.63807      1.3326932      0             -10352.118     -10754.423     -10744.616     -6810.6603      3.8689729      309.5687       268.96188      571.19037      0.99945978   
       912   5526.0205      660.36258      9.8420771      1.2177786     -404.99737     -403.77959      1.3576648      0             -10352.059     -10754.481     -10744.639     -6798.2503      3.8687639      309.21282      268.80232      571.02608      0.99951698   
       913   5531.2944      663.82754      9.893719       1.2170256     -405.39549     -404.17847      1.3828173      0             -10351.864     -10754.659     -10744.766     -6791.0592      3.8685526      308.40549      268.18757      570.28731      0.99990875   
       914   5535.6585      668.39518      9.9617954      1.2162615     -405.49804     -404.28177      1.4081459      0             -10351.925     -10754.799     -10744.837     -6776.4528      3.8683391      307.79855      267.81643      569.67696      0.99994543   
       915   5540.8704      674.05991      10.046223      1.2154863     -405.84837     -404.63288      1.4336457      0             -10351.858     -10755.057     -10745.011     -6766.8545      3.8681235      306.7842       267.00349      568.47537      1.0003058    
       916   5545.415       680.81381      10.146883      1.2147001     -405.90732     -404.69262      1.4593119      0             -10352.043     -10755.276     -10745.129     -6749.9471      3.8679056      305.90984      266.41642      567.43154      1.0003152    
       917   5550.6119      688.64768      10.26364       1.2139029     -406.20544     -404.99153      1.4851396      0             -10352.107     -10755.613     -10745.349     -6737.8633      3.8676856      304.69796      265.42032      565.82044      1.0006384    
       918   5556.528       697.5544       10.396386      1.2130949     -406.51271     -405.29962      1.5111237      0             -10352.227     -10756.016     -10745.619     -6725.3516      3.8674634      303.4418       264.41525      564.00738      1.0009965    
       919   5561.002       707.51217      10.544797      1.2122759     -406.42104     -405.20876      1.5372594      0             -10352.649     -10756.321     -10745.776     -6703.0993      3.8672391      301.87361      263.3416       562.12245      1.000855     
       920   5566.1384      718.50799      10.708679      1.2114462     -406.57745     -405.366        1.5635415      0             -10352.943     -10756.745     -10746.037     -6685.9048      3.8670127      300.65993      262.27432      560.15188      1.0010374    
       921   5571.9085      730.53233      10.887891      1.2106058     -406.81546     -405.60485      1.5899651      0             -10353.249     -10757.264     -10746.376     -6669.9694      3.8667843      299.08983      260.97464      557.72436      1.0013498    
       922   5576.5541      743.5585       11.082033      1.2097548     -406.66673     -405.45698      1.6165251      0             -10353.843     -10757.683     -10746.601     -6644.6076      3.8665538      297.18291      259.60998      555.20681      1.0011755    
       923   5582.6096      757.56871      11.290842      1.2088933     -406.87918     -405.67029      1.6432163      0             -10354.247     -10758.275     -10746.984     -6626.9263      3.8663213      295.52159      258.13014      552.43575      1.0014778    
       924   5587.865       772.54551      11.514057      1.2080213     -406.81102     -405.603        1.6700337      0             -10354.878     -10758.811     -10747.297     -6602.2692      3.8660869      293.6296       256.65388      549.58138      1.0014345    
       925   5593.7836      788.46451      11.751315      1.207139      -406.9001      -405.69296      1.6969722      0             -10355.457     -10759.453     -10747.702     -6580.6608      3.8658504      291.74172      255.05291      546.48954      1.0016091    
       926   5598.9311      805.30009      12.002233      1.2062464     -406.78986     -405.58361      1.7240264      0             -10356.199     -10760.059     -10748.056     -6553.9691      3.865612       289.5501       253.32496      543.14938      1.0015373    
       927   5604.8545      823.02649      12.266428      1.2053436     -406.8254      -405.62005      1.7511914      0             -10356.9       -10760.768     -10748.502     -6530.1002      3.8653717      287.44896      251.54036      539.66886      1.0016709    
       928   5610.1069      841.61607      12.543488      1.2044308     -406.67269     -405.46826      1.7784618      0             -10357.752     -10761.441     -10748.898     -6501.4387      3.8651295      285.01845      249.61465      535.93684      1.0015699    
       929   5616.0613      861.04092      12.832997      1.203508      -406.65793     -405.45443      1.8058324      0             -10358.568     -10762.217     -10749.384     -6475.4593      3.8648854      282.74624      247.67711      532.12641      1.0016656    
       930   5622.0625      881.27351      13.134545      1.2025754     -406.56095     -405.35837      1.8332979      0             -10359.477     -10763.002     -10749.867     -6447.149       3.8646396      280.28381      245.64901      528.09918      1.0016676    
       931   5627.3847      902.27865      13.447606      1.2016331     -406.35011     -405.14848      1.8608532      0             -10360.482     -10763.769     -10750.322     -6415.8092      3.8643918      277.50421      243.41527      523.73442      1.0015276    
       932   5633.6883      924.02601      13.77173       1.2006812     -406.26169     -405.06101      1.8884928      0             -10361.465     -10764.638     -10750.866     -6386.8613      3.8641424      274.9592       241.23754      519.40672      1.001567     
       933   5639.6388      946.48626      14.106479      1.1997199     -406.10666     -404.90694      1.9162115      0             -10362.527     -10765.518     -10751.411     -6356.0052      3.8638911      272.21716      238.9661       514.87125      1.0015317    
       934   5645.8669      969.62332      14.451315      1.1987491     -405.91825     -404.7195       1.944004       0             -10363.642     -10766.418     -10751.966     -6324.0251      3.8636382      269.31803      236.56728      510.11144      1.0014629    
       935   5651.958       993.40161      14.805707      1.1977692     -405.71126     -404.51349      1.9718649      0             -10364.805     -10767.346     -10752.541     -6291.2842      3.8633835      266.33549      234.09111      505.19279      1.0013816    
       936   5657.8372      1017.7859      15.169132      1.1967802     -405.48187     -404.28509      1.9997888      0             -10366.015     -10768.3       -10753.131     -6257.7196      3.8631272      263.27684      231.54909      500.12838      1.0012823    
       937   5663.7021      1042.7405      15.541057      1.1957822     -405.23903     -404.04324      2.0277705      0             -10367.269     -10769.284     -10753.743     -6223.5601      3.8628692      260.13716      228.93365      494.91398      1.0011774    
       938   5670.2867      1068.2299      15.920951      1.1947755     -405.02968     -403.83491      2.0558044      0             -10368.551     -10770.33      -10754.409     -6189.9037      3.8626097      256.76766      226.14122      489.41034      1.0011353    
       939   5676.2522      1094.214       16.308221      1.19376       -404.70951     -403.51575      2.0838854      0             -10369.903     -10771.335     -10755.027     -6153.479       3.8623485      253.47638      223.41368      483.9096       1.0009444    
       940   5682.8948      1120.6569      16.702326      1.1927361     -404.45587     -403.26313      2.1120078      0             -10371.273     -10772.424     -10755.721     -6118.3648      3.8620858      250.05271      220.5495       478.23439      1.0008644    
       941   5688.8067      1147.5207      17.102706      1.1917038     -404.10923     -402.91753      2.1401664      0             -10372.701     -10773.479     -10756.376     -6080.941       3.8618216      246.63908      217.70851      472.48974      1.0006594    
       942   5695.4808      1174.7676      17.508795      1.1906633     -403.81981     -402.62914      2.1683557      0             -10374.152     -10774.613     -10757.104     -6044.6668      3.861556       243.06276      214.71804      466.55839      1.0005534    
       943   5702.1438      1202.3623      17.920068      1.1896148     -403.48791     -402.29829      2.1965703      0             -10375.644     -10775.746     -10757.826     -6007.2882      3.8612888      239.46875      211.72359      460.54296      1.0003954    
       944   5708.0406      1230.2598      18.335854      1.1885583     -403.09707     -401.90851      2.2248048      0             -10377.178     -10776.862     -10758.526     -5968.4599      3.8610203      235.79914      208.66581      454.38172      1.0001595    
       945   5714.7683      1258.4244      18.75562       1.1874941     -402.75104     -401.56355      2.2530537      0             -10378.74      -10778.051     -10759.295     -5930.5776      3.8607503      232.06938      205.53943      448.15478      1.0000061    
       946   5721.1665      1286.822       19.17886       1.1864224     -402.37759     -401.19117      2.2813116      0             -10380.334     -10779.244     -10760.065     -5892.0139      3.860479       228.26016      202.36676      441.79407      0.99982111   
       947   5727.8138      1315.4106      19.604945      1.1853432     -401.9808      -400.79546      2.3095731      0             -10381.959     -10780.445     -10760.84      -5852.8913      3.8602064      224.3925       199.14108      435.32429      0.99961091   
       948   5734.5153      1344.1512      20.033296      1.1842567     -401.57371     -400.38945      2.3378327      0             -10383.613     -10781.665     -10761.632     -5813.5344      3.8599325      220.46051      195.86101      428.75959      0.99939617   
       949   5741.1738      1373.0062      20.463354      1.1831632     -401.15254     -399.96938      2.3660851      0             -10385.296     -10782.899     -10762.435     -5773.8831      3.8596574      216.47705      192.53842      422.10478      0.99916991   
       950   5747.7916      1401.938       20.894554      1.1820627     -400.72028     -399.53822      2.3943247      0             -10387.004     -10784.148     -10763.253     -5734.0312      3.859381       212.43876      189.17081      415.36711      0.99893663   
       951   5754.5541      1430.9093      21.326344      1.1809555     -400.27639     -399.09544      2.4225461      0             -10388.737     -10785.41      -10764.084     -5693.9922      3.8591034      208.34983      185.76237      408.54745      0.99869477   
       952   5761.2424      1459.8832      21.758172      1.1798418     -399.82222     -398.64237      2.4507439      0             -10390.493     -10786.685     -10764.927     -5653.8223      3.8588247      204.20946      182.31266      401.65332      0.99844614   
       953   5768.0003      1488.8233      22.189497      1.1787216     -399.35754     -398.17882      2.4789127      0             -10392.271     -10787.971     -10765.781     -5613.5416      3.8585449      200.02341      178.82653      394.68687      0.99818973   
       954   5774.7561      1517.6938      22.619784      1.1775952     -398.88353     -397.70594      2.507047       0             -10394.069     -10789.268     -10766.648     -5573.2014      3.858264       195.79042      175.30347      387.6565       0.99792709   
       955   5781.3963      1546.4594      23.048509      1.1764627     -398.40009     -397.22362      2.5351414      0             -10395.885     -10790.574     -10767.525     -5532.8236      3.8579821      191.51768      171.74914      380.5644       0.99765738   
       956   5788.0462      1575.0856      23.475155      1.1753243     -397.9083      -396.73297      2.5631906      0             -10397.719     -10791.889     -10768.414     -5492.457       3.8576992      187.20131      168.16138      373.41784      0.9973821    
       957   5794.8349      1603.5385      23.899218      1.1741803     -397.40805     -396.23387      2.591189       0             -10399.569     -10793.211     -10769.312     -5452.1225      3.8574153      182.85113      164.54747      366.21982      0.99710034   
       958   5802.2014      1631.7876      24.320244      1.1730306     -396.91571     -395.74268      2.6191314      0             -10401.444     -10794.568     -10770.247     -5412.2148      3.8571305      178.25098      160.76819      358.7979       0.99684334   
       959   5808.8142      1659.7957      24.737678      1.1718757     -396.39155     -395.21968      2.6470124      0             -10403.306     -10795.879     -10771.141     -5371.8519      3.8568448      173.95075      157.17814      351.58449      0.99652955   
       960   5816.1771      1687.533       25.151077      1.1707155     -395.8792      -394.70849      2.6748264      0             -10405.209     -10797.243     -10772.092     -5332.0511      3.8565582      169.35923      153.39986      344.1725       0.99625385   
       961   5822.8664      1714.969       25.559984      1.1695504     -395.34315     -394.1736       2.7025683      0             -10407.092     -10798.563     -10773.003     -5292.0221      3.8562708      165.01079      149.77352      336.90047      0.99593185   
       962   5830.3639      1742.0742      25.963961      1.1683804     -394.81662     -393.64824      2.7302327      0             -10409.016     -10799.934     -10773.97      -5252.5443      3.8559827      160.36612      145.95886      329.43465      0.99564464   
       963   5837.8237      1768.8249      26.362655      1.1672058     -394.28127     -393.11406      2.7578142      0             -10410.929     -10801.285     -10774.923     -5213.2148      3.8556939      155.87342      142.24597      322.07384      0.9953391    
       964   5844.3096      1795.1824      26.755489      1.1660268     -393.72855     -392.56253      2.7853074      0             -10412.834     -10802.612     -10775.856     -5173.8652      3.8554043      151.40702      138.53498      314.68915      0.99500387   
       965   5851.7666      1821.1253      27.142143      1.1648434     -393.18385     -392.01901      2.8127072      0             -10414.781     -10803.987     -10776.845     -5135.0902      3.8551141      146.69256      134.67526      307.16861      0.99470083   
       966   5859.0095      1846.6335      27.522319      1.1636559     -392.63472     -391.47106      2.8400083      0             -10416.709     -10805.34      -10777.818     -5096.6192      3.8548233      142.14258      130.9277       299.77288      0.99438434   
       967   5866.2988      1871.6763      27.895558      1.1624645     -392.07875     -390.91629      2.8672052      0             -10418.642     -10806.691     -10778.795     -5058.4184      3.8545319      137.53413      127.1376       292.32476      0.99406029   
       968   5873.5906      1896.2295      28.2615        1.1612693     -391.51929     -390.35802      2.8942929      0             -10420.577     -10808.04      -10779.779     -5020.5809      3.85424        132.90761      123.33783      284.87358      0.99373345   
       969   5881.0794      1920.2703      28.619806      1.1600705     -390.95679     -389.79672      2.9212661      0             -10422.512     -10809.387     -10780.767     -4983.1328      3.8539476      128.27106      119.53387      277.42624      0.99340361   
       970   5888.5782      1943.777       28.97015       1.1588684     -390.39187     -389.233        2.9481196      0             -10424.446     -10810.731     -10781.761     -4946.103       3.8536548      123.62067      115.72452      269.98382      0.99307171   
       971   5895.9621      1966.7287      29.312223      1.157663      -389.82486     -388.6672       2.9748482      0             -10426.378     -10812.071     -10782.759     -4909.5139      3.8533616      118.9646       111.91496      262.55357      0.99273755   
       972   5903.3005      1989.1056      29.645729      1.1564545     -389.25625     -388.0998       3.0014467      0             -10428.308     -10813.407     -10783.761     -4873.3901      3.853068       114.29803      108.10311      255.13507      0.99240188   
       973   5910.5897      2010.889       29.970391      1.1552431     -388.68643     -387.53118      3.0279101      0             -10430.234     -10814.737     -10784.767     -4837.7531      3.8527741      109.62826      104.29368      247.73514      0.99206465   
       974   5917.9303      2032.0614      30.285945      1.154029      -388.11577     -386.96174      3.0542332      0             -10432.155     -10816.062     -10785.776     -4802.6243      3.85248        104.952        100.48547      240.35426      0.99172638   
       975   5925.3499      2052.606       30.592142      1.1528124     -387.54466     -386.39185      3.0804109      0             -10434.069     -10817.381     -10786.789     -4768.0234      3.8521856      100.27525      96.682336      232.9981       0.9913871    
       976   5932.4802      2072.5073      30.888752      1.1515934     -386.97345     -385.82186      3.1064382      0             -10435.978     -10818.693     -10787.804     -4733.9694      3.8518911      95.595079      92.883293      225.66731      0.99104726   
       977   5939.8505      2091.7507      31.175558      1.1503722     -386.4025      -385.25213      3.13231        0             -10437.878     -10819.998     -10788.822     -4700.4808      3.8515964      90.917266      89.09206       218.36724      0.99070691   
       978   5947.2247      2110.3229      31.452358      1.1491489     -385.83212     -384.68297      3.1580214      0             -10439.77      -10821.294     -10789.842     -4667.5738      3.8513016      86.238795      85.30752       211.09834      0.99036645   
       979   5954.8409      2128.2112      31.718966      1.1479238     -385.26268     -384.11476      3.1835674      0             -10441.652     -10822.583     -10790.864     -4635.2656      3.8510069      81.565279      81.533294      203.86567      0.99002598   
       980   5962.0737      2145.4041      31.975211      1.1466969     -384.69445     -383.54776      3.208943       0             -10443.524     -10823.863     -10791.887     -4603.5704      3.8507121      76.893821      77.768259      196.6696       0.98968582   
       981   5969.663       2161.8913      32.220937      1.1454686     -384.1278      -382.98233      3.2341434      0             -10445.385     -10825.133     -10792.912     -4572.5036      3.8504174      72.229505      74.015654      189.51463      0.9893461    
       982   5976.9922      2177.6632      32.456002      1.1442388     -383.56298     -382.41874      3.2591637      0             -10447.234     -10826.394     -10793.938     -4542.078       3.8501228      67.569969      70.274646      182.40135      0.98900712   
       983   5984.3817      2192.7112      32.680278      1.1430078     -383.00033     -381.85732      3.2839991      0             -10449.071     -10827.644     -10794.964     -4512.3071      3.8498283      62.919776      66.548076      175.33362      0.98866901   
       984   5991.5977      2207.0277      32.893652      1.1417757     -382.44006     -381.29828      3.3086447      0             -10450.895     -10828.884     -10795.991     -4483.2012      3.8495341      58.276052      62.834872      168.31184      0.98833204   
       985   5998.9439      2220.606       33.096024      1.1405428     -381.88254     -380.74199      3.3330958      0             -10452.704     -10830.113     -10797.017     -4454.7731      3.8492401      53.644163      59.138333      161.34014      0.98799635   
       986   6006.3685      2233.4404      33.287308      1.1393091     -381.32791     -380.1886       3.3573476      0             -10454.5       -10831.331     -10798.044     -4427.0304      3.8489464      49.020447      55.456831      154.41814      0.98766216   
       987   6014.0501      2245.5259      33.467431      1.1380747     -380.77652     -379.63845      3.3813956      0             -10456.281     -10832.538     -10799.07      -4399.9846      3.8486531      44.410387      51.793695      147.54988      0.9873296    
       988   6021.4204      2256.8585      33.636332      1.13684       -380.22851     -379.09167      3.405235       0             -10458.046     -10833.732     -10800.096     -4373.6413      3.8483602      39.810254      49.820796      140.73491      0.98699887   
       989   6028.7654      2267.435       33.793965      1.1356049     -379.68421     -378.54861      3.4288612      0             -10459.795     -10834.915     -10801.121     -4348.0107      3.8480677      37.556817      50.041285      133.97696      0.98667012   
       990   6036.2212      2277.253       33.940293      1.1343698     -379.14372     -378.00935      3.4522697      0             -10461.528     -10836.085     -10802.144     -4323.0968      3.8477757      37.733202      50.259303      127.27551      0.98634351   
       991   6043.5944      2286.3109      34.075292      1.1331346     -378.60738     -377.47424      3.4754559      0             -10463.243     -10837.242     -10803.167     -4298.9085      3.8474843      37.907583      50.474842      120.63391      0.9860192    
       992   6050.7593      2294.6079      34.198951      1.1318996     -378.07527     -376.94337      3.4984153      0             -10464.942     -10838.386     -10804.188     -4275.4484      3.8471935      38.079945      50.687889      114.05145      0.98569734   
       993   6058.19        2302.1439      34.311269      1.1306648     -377.54773     -376.41707      3.5211436      0             -10466.622     -10839.518     -10805.206     -4252.7244      3.8469034      38.250283      50.898434      107.5311       0.98537812   
       994   6065.5167      2308.9196      34.412254      1.1294305     -377.02483     -375.8954       3.5436363      0             -10468.284     -10840.636     -10806.224     -4230.7375      3.846614       38.418583      51.106464      101.07205      0.98506166   
       995   6072.8736      2314.9362      34.501926      1.1281968     -376.50688     -375.37868      3.565889       0             -10469.927     -10841.74      -10807.238     -4209.4943      3.8463253      38.58484       51.311969      94.677111      0.98474814   
       996   6079.9727      2320.1958      34.580315      1.1269638     -375.99391     -374.86694      3.5878975      0             -10471.552     -10842.831     -10808.251     -4188.994       3.8460375      38.74904       51.514939      88.345475      0.98443764   
       997   6087.4621      2324.701       34.647461      1.1257317     -375.48621     -374.36048      3.6096575      0             -10473.157     -10843.908     -10809.261     -4169.2419      3.8457506      38.911178      51.715362      82.07968       0.98413033   
       998   6094.921       2328.4552      34.703413      1.1245006     -374.9838      -373.8593       3.6311648      0             -10474.743     -10844.971     -10810.268     -4150.2359      3.8454645      39.07124       51.913228      75.878796      0.98382627   
       999   6102.364       2331.462       34.748227      1.1232705     -374.48696     -373.36369      3.6524152      0             -10476.309     -10846.021     -10811.272     -4131.9799      3.8451795      39.229223      52.108528      71.907492      0.98352564   
      1000   6109.6366      2333.7261      34.78197       1.1220418     -373.99569     -372.87364      3.6734046      0             -10477.855     -10847.056     -10812.274     -4114.4709      3.8448955      39.385112      52.301248      72.089347      0.98322847   
Loop time of 6109.64 on 8 procs for 1000 steps with 6 atoms

Performance: 0.000 ns/day, 169712.128 hours/ns, 0.164 timesteps/s
99.8% CPU use with 8 MPI tasks x no OpenMP threads

MPI task timing breakdown:
Section |  min time  |  avg time  |  max time  |%varavg| %total
---------------------------------------------------------------
Pair    | 0.0059034  | 0.00699    | 0.0078992  |   0.9 |  0.00
Bond    | 0.0014313  | 0.0022263  | 0.0048609  |   2.2 |  0.00
Neigh   | 0          | 0          | 0          |   0.0 |  0.00
Comm    | 0.024563   | 0.027369   | 0.028125   |   0.7 |  0.00
Output  | 0.15097    | 0.15225    | 0.15428    |   0.3 |  0.00
Modify  | 6109.4     | 6109.4     | 6109.4     |   0.0 |100.00
Other   |            | 0.005855   |            |       |  0.00

Nlocal:           0.75 ave           2 max           0 min
Histogram: 3 0 0 0 0 4 0 0 0 1
Nghost:          43.25 ave          48 max          38 min
Histogram: 1 2 1 0 0 0 0 0 0 4
Neighs:           1.75 ave           3 max           0 min
Histogram: 3 0 0 0 0 0 1 0 0 4

Total # of neighbors = 14
Ave neighs/atom = 2.3333333
Ave special neighs/atom = 1
Neighbor list builds = 0
Dangerous builds = 0
Total wall time: 1:42:36
