LAMMPS (4 May 2022)
# MM for water dimer

units		real
atom_style	full

bond_style      harmonic
angle_style     harmonic

read_data       data.water.dimer
Reading data file ...
  orthogonal box = (-5 -5 -5) to (5 5 5)
  1 by 1 by 1 MPI processor grid
  reading atoms ...
  6 atoms
  scanning bonds ...
  2 = max bonds/atom
  scanning angles ...
  1 = max angles/atom
  reading bonds ...
  4 bonds
  reading angles ...
  2 angles
Finding 1-2 1-3 1-4 neighbors ...
  special bond factors lj:    0        0        0       
  special bond factors coul:  0        0        0       
     2 = max # of 1-2 neighbors
     1 = max # of 1-3 neighbors
     1 = max # of 1-4 neighbors
     2 = max # of special neighbors
  special bonds CPU = 0.000 seconds
  read_data CPU = 0.005 seconds

group           mm molecule 1
3 atoms in group mm
group           qm molecule 2
3 atoms in group qm

# pair style must define stand-alone short-range Coulombics

pair_style      lj/cut/coul/cut 6.0
pair_coeff      1 1 0.13506 3.166
pair_coeff      2 2 0.0 1.0

velocity        all create 300.0 458732

neighbor	1.0 bin
neigh_modify	delay 0 every 1 check yes

fix		1 all nve

compute         1 all pair/local dist
compute         2 all reduce max c_1

variable        fxabs atom abs(fx)
variable        fyabs atom abs(fy)
variable        fzabs atom abs(fz)
variable        qabs atom abs(q)
compute         3 all reduce max v_fxabs v_fyabs v_fzabs v_qabs

dump            1 all custom 1 dump.water.dimer.mm id x y z q fx fy fz
dump_modify     1 sort id format float "%20.16g"

timestep        0.1

thermo_style    custom step cpu temp ke evdwl ecoul epair emol elong pe etotal press                 c_2 c_3[*]

thermo          1

run		100
Generated 1 of 1 mixed pair_coeff terms from geometric mixing rule
Neighbor list info ...
  update every 1 steps, delay 0 steps, check yes
  max neighbors/atom: 2000, page size: 100000
  master list distance cutoff = 7
  ghost atom cutoff = 7
  binsize = 3.5, bins = 3 3 3
  2 neighbor lists, perpetual/occasional/extra = 1 1 0
  (1) pair lj/cut/coul/cut, perpetual
      attributes: half, newton on
      pair build: half/bin/newton
      stencil: half/bin/3d
      bin: standard
  (2) compute pair/local, occasional, copy from (1)
      attributes: half, newton on
      pair build: copy
      stencil: none
      bin: none
Per MPI rank memory allocation (min/avg/max) = 7.814 | 7.814 | 7.814 Mbytes
   Step          CPU            Temp          KinEng         E_vdwl         E_coul         E_pair         E_mol          E_long         PotEng         TotEng         Press           c_2           c_3[1]         c_3[2]         c_3[3]         c_3[4]    
         0   0              300            4.4712151      1.4460769     -8.6451874     -7.1991105      3.3067213      0             -3.8923892      0.57882592     3501.9716      3.6506239      29.132518      26.894893      39.12903       0.8476       
         1   0.000108574    285.13363      4.249646       1.4375279     -8.6406901     -7.2031621      3.5325983      0             -3.6705638      0.57908212     3614.6958      3.6464898      29.314431      30.404171      38.108216      0.8476       
         2   0.000216888    270.14782      4.0262967      1.4290421     -8.6397116     -7.2106695      3.7637147      0             -3.4469549      0.57934187     3709.3988      3.6425559      29.356146      33.782878      41.024451      0.8476       
         3   0.000317085    255.32078      3.8053137      1.4206323     -8.6422685     -7.2216361      3.9959226      0             -3.2257135      0.5796002      3785.896       3.6388405      31.590054      37.014455      44.820312      0.8476       
         4   0.000408338    240.92922      3.5908212      1.4123113     -8.6483639     -7.2360525      4.2250834      0             -3.0109691      0.57985214     3844.0886      3.6353606      34.007291      40.083016      48.357581      0.8476       
         5   0.000495879    227.24308      3.3868423      1.4040912     -8.6579872     -7.253896       4.4471465      0             -2.8067495      0.58009281     3883.9583      3.6321321      36.282114      42.973422      51.619538      0.8476       
         6   0.000595848    214.52029      3.1972211      1.3959835     -8.6711139     -7.2751304      4.6582269      0             -2.6169035      0.58031757     3905.5628      3.6291698      38.403224      45.671352      54.590895      0.8476       
         7   0.000690563    203.00175      3.0255483      1.3879994     -8.6877054     -7.299706       4.8546798      0             -2.4450263      0.58052204     3909.0296      3.6264872      40.360011      48.163379      57.25787       0.8476       
         8   0.000780788    192.90672      2.8750914      1.3801493     -8.7077084     -7.3275592      5.03317        0             -2.2943892      0.58070222     3894.5514      3.6240965      42.142609      50.437027      59.608252      0.8476       
         9   0.000869152    184.42845      2.748731       1.3724429     -8.7310548     -7.3586119      5.1907355      0             -2.1678764      0.58085457     3862.3805      3.6220086      43.741945      52.480839      61.631459      0.8476       
        10   0.000962443    177.73046      2.6489038      1.3648896     -8.7576613     -7.3927717      5.324844       0             -2.0679277      0.58097607     3812.8237      3.6202329      45.149781      54.284429      63.318585      0.8476       
        11   0.00105142     172.94325      2.577555       1.3574978     -8.7874291     -7.4299313      5.4334407      0             -1.9964907      0.58106428     3746.2374      3.6187774      46.358757      55.838538      64.662439      0.8476       
        12   0.001137597    170.16172      2.5360988      1.3502751     -8.8202436     -7.4699685      5.5149871      0             -1.9549814      0.58111741     3663.0237      3.6176486      47.362428      57.135076      65.657575      0.8476       
        13   0.001255333    169.44321      2.5253901      1.3432287     -8.8559744     -7.5127456      5.5684898      0             -1.9442558      0.5811343      3563.6262      3.6168515      48.155295      58.167168      66.300317      0.8476       
        14   0.001369762    170.80633      2.5457061      1.3363649     -8.8944745     -7.5581097      5.5935181      0             -1.9645915      0.58111454     3448.5266      3.6163895      48.73284       58.929186      66.588769      0.8476       
        15   0.001457514    174.23042      2.596739       1.329689      -8.9355811     -7.6058921      5.5902115      0             -2.0156806      0.58105836     3318.2421      3.6162647      49.091543      59.416783      66.522817      0.8476       
        16   0.001541406    179.65591      2.6776006      1.3232059     -8.9791148     -7.6559088      5.5592749      0             -2.0966339      0.58096674     3173.3232      3.6164774      49.228909      59.626917      66.104129      0.8476       
        17   0.001624611    186.98526      2.7868377      1.3169195     -9.0248798     -7.7079604      5.501964       0             -2.2059963      0.58084132     3014.3518      3.6170265      49.143481      59.557868      65.336134      0.8476       
        18   0.001713422    196.08479      2.9224575      1.3108328     -9.0726648     -7.761832       5.4200588      0             -2.3417731      0.5806844      2841.9408      3.6179093      48.834849      59.209249      64.224005      0.8476       
        19   0.001798708    206.78712      3.0819656      1.3049483     -9.1222424     -7.817294       5.3158273      0             -2.5014667      0.58049889     2656.7333      3.6191218      48.303661      58.582019      62.774623      0.8476       
        20   0.001880692    218.89428      3.2624113      1.2992676     -9.1733703     -7.8741026      5.1919796      0             -2.682123       0.58028826     2459.4027      3.6206582      47.55162       57.678475      60.996542      0.8476       
        21   0.00196951     232.18142      3.4604436      1.2937914     -9.2257915     -7.9320001      5.051613       0             -2.8803871      0.58005648     2250.6534      3.6225641      46.581483      56.502249      58.899935      0.8476       
        22   0.002063019    246.4011       3.6723744      1.2885196     -9.2792356     -7.990716       4.8981495      0             -3.0925665      0.57980792     2031.2217      3.6260815      45.397051      55.058297      56.496544      0.8476       
        23   0.002146555    261.28792      3.8942483      1.2834517     -9.3334195     -8.0499678      4.7352669      0             -3.314701       0.5795473      1801.8772      3.6296949      44.003153      53.352876      53.799614      0.8476       
        24   0.002251198    276.56359      4.1219177      1.278586      -9.3880487     -8.1094627      4.5668246      0             -3.5426381      0.57927957     1563.4241      3.633394       42.405634      51.393519      50.823822      0.8476       
        25   0.002351296    291.94228      4.3511224      1.2739202     -9.4428184     -8.1688982      4.3967857      0             -3.7721125      0.57900986     1316.7028      3.6371685      40.611323      49.189004      47.585204      0.8476       
        26   0.002436139    307.13602      4.5775707      1.2694515     -9.4974158     -8.2279643      4.229137       0             -3.9988273      0.57874331     1062.5915      3.6410075      38.628012      46.749316      44.101067      0.8476       
        27   0.002517578    321.86029      4.797022       1.2651761     -9.551521      -8.2863449      4.067808       0             -4.2185369      0.57848506     802.00755      3.6448998      36.464415      44.085601      41.406795      0.8476       
        28   0.002604486    335.83949      5.0053686      1.2610896     -9.6048094     -8.3437198      3.9165913      0             -4.4271285      0.57824005     535.9089       3.6488343      34.130138      41.210115      44.10716       0.8476       
        29   0.0026898      348.81219      5.1987145      1.2571871     -9.6569537     -8.3997666      3.7790651      0             -4.6207014      0.57801304     265.29457      3.6527995      31.635628      38.136171      46.657468      0.8476       
        30   0.002773029    360.53631      5.3734513      1.2534629     -9.7076257     -8.4541628      3.6585199      0             -4.7956429      0.5778084     -8.794746       3.656784       28.992133      34.878073      49.045375      0.8476       
        31   0.002855462    370.79371      5.526328       1.2499107     -9.7564992     -8.5065884      3.5578905      0             -4.9486979      0.57763011    -285.27697      3.6607762      27.62239       32.182847      51.259321      0.8476       
        32   0.002943797    379.3945       5.6545146      1.2465238     -9.8032516     -8.5567279      3.4796949      0             -5.077033       0.57748165    -563.02946      3.6647645      26.563572      29.797288      53.288577      0.8476       
        33   0.003030293    386.18075      5.7556573      1.2432946     -9.8475672     -8.6042726      3.4259812      0             -5.1782914      0.57736592    -840.89063      3.6687378      25.375082      27.259723      55.123309      0.8476       
        34   0.003113837    391.02961      5.827925       1.2402154     -9.8891387     -8.6489233      3.3982836      0             -5.2506397      0.57728522    -1117.6623      3.6726846      24.062447      24.582642      56.754618      0.8476       
        35   0.003205052    393.85572      5.8700454      1.2372778     -9.9276704     -8.6903926      3.3975883      0             -5.2928043      0.57724115    -1392.1132      3.6765939      22.631838      21.779274      58.174591      0.8476       
        36   0.00333772     394.61297      5.8813315      1.234473      -9.9628799     -8.7284069      3.42431        0             -5.3040969      0.57723463    -1662.9826      3.6804549      22.1841        18.863529      59.376335      0.8476       
        37   0.003459581    393.29544      5.861695       1.2317918     -9.994501      -8.7627093      3.4782801      0             -5.2844292      0.57726585    -1928.9861      3.6846426      23.596149      15.849925      60.354015      0.8476       
        38   0.003546305    389.93764      5.8116501      1.2292246     -10.022286     -8.7930611      3.5587453      0             -5.2343159      0.57733426    -2188.8208      3.6896572      24.897159      16.33096       61.102879      0.8476       
        39   0.003647059    384.61386      5.7323043      1.2267616     -10.046006     -8.8192445      3.6643788      0             -5.1548657      0.57743861    -2441.1731      3.6946813      26.080685      17.116789      61.619281      0.8476       
        40   0.003734658    377.43688      5.6253383      1.2243927     -10.065456     -8.8410636      3.7933023      0             -5.0477613      0.57757694    -2684.7253      3.699693       27.140845      17.813611      61.900699      0.8476       
        41   0.003822249    368.55583      5.4929746      1.2221076     -10.080455     -8.8583471      3.943119       0             -4.915228       0.57774662    -2918.1652      3.7046705      28.072353      18.41852       61.945746      0.8476       
        42   0.003907418    358.15337      5.3379359      1.2198956     -10.090844     -8.8709487      4.1109572      0             -4.7599915      0.57794442    -3140.1942      3.7095927      28.870544      18.929064      61.754172      0.8476       
        43   0.004000453    346.44225      5.1633927      1.2177461     -10.096495     -8.8787492      4.2935231      0             -4.5852261      0.57816655    -3349.5379      3.7144383      29.531397      19.34326       61.326869      0.8476       
        44   0.004088816    333.66121      4.9729034      1.2156484     -10.097305     -8.8816569      4.4871623      0             -4.3944946      0.57840875    -3544.9561      3.719187       30.051559      20.34722       60.66586       0.8476       
        45   0.004183228    320.07043      4.7703457      1.2135917     -10.0932       -8.8796086      4.6879293      0             -4.1916794      0.57866635    -3725.253       3.7238187      30.428358      24.214592      59.774286      0.8476       
        46   0.004278607    305.94652      4.5598423      1.2115652     -10.084135     -8.8725699      4.891662       0             -3.980908       0.57893437    -3889.2889      3.7283141      30.65982       27.968201      58.656393      0.8476       
        47   0.004367758    291.57719      4.3456811      1.2095584     -10.070094     -8.8605354      5.0940619      0             -3.7664735      0.57920762    -4035.9902      3.7326547      30.744677      31.589809      57.317501      0.8476       
        48   0.004459797    277.25567      4.1322324      1.2075606     -10.051089     -8.8435284      5.2907768      0             -3.5527516      0.5794808     -4164.3608      3.7368229      30.682376      35.061795      55.76398       0.8476       
        49   0.004546987    263.27502      3.9238641      1.2055614     -10.027162     -8.8216009      5.4774855      0             -3.3441155      0.57974859    -4273.4924      3.7408018      30.794569      38.367231      54.003214      0.8476       
        50   0.004638731    249.92244      3.7248566      1.2035507     -9.9983835     -8.7948328      5.6499819      0             -3.1448508      0.58000576    -4362.5748      3.7445759      33.382629      41.489976      56.003406      0.8476       
        51   0.004727684    237.47368      3.5393196      1.2015187     -9.9648493     -8.7633307      5.8042583      0             -2.9590724      0.58024727    -4430.9054      3.7481304      35.814306      44.414749      58.436055      0.8476       
        52   0.004814581    226.18762      3.3711116      1.1994557     -9.9266829     -8.7272273      5.9365841      0             -2.7906432      0.58046839    -4477.8981      3.7514521      38.077898      47.127208      60.568812      0.8476       
        53   0.004900573    216.30119      3.2237638      1.1973525     -9.8840323     -8.6866798      6.0435808      0             -2.643099       0.58066475    -4503.0912      3.7545288      40.162494      49.614021      62.390703      0.8476       
        54   0.004992228    208.02471      3.1004107      1.1952004     -9.837069      -8.6418686      6.1222903      0             -2.5195782      0.58083247    -4506.1544      3.7573496      42.058026      51.862932      63.892309      0.8476       
        55   0.005088966    201.5377       3.003728       1.1929912     -9.7859863     -8.5929952      6.1702353      0             -2.4227599      0.58096819    -4486.8947      3.7599052      43.755322      53.862822      65.065803      0.8476       
        56   0.005184769    196.98532      2.9358791      1.1907168     -9.7309979     -8.540281       6.1854711      0             -2.35481        0.58106918    -4445.2607      3.7621874      45.246153      55.603766      65.90499       0.8476       
        57   0.005323812    194.4754       2.8984711      1.1883703     -9.6723353     -8.4839651      6.1666273      0             -2.3173378      0.58113336    -4381.3461      3.7641898      46.523274      57.077084      66.405331      0.8476       
        58   0.005416242    194.07624      2.8925221      1.1859447     -9.6102467     -8.424302       6.1129393      0             -2.3113627      0.58115939    -4295.3914      3.7659072      47.580464      58.27538       66.563967      0.8476       
        59   0.005503175    195.81517      2.9184391      1.1834341     -9.5449945     -8.3615604      6.0242679      0             -2.3372925      0.58114662    -4187.7839      3.7673361      48.412555      59.192585      66.379724      0.8476       
        60   0.005588728    199.67782      2.9760082      1.180833      -9.4768532     -8.2960202      5.9011071      0             -2.394913       0.58109517    -4059.057       3.7684744      49.015463      59.823986      65.853118      0.8476       
        61   0.005680657    205.6083       3.0643965      1.1781367     -9.4061076     -8.2279709      5.7445803      0             -2.4833906      0.58100592    -3909.8873      3.7693219      49.386211      60.16625       64.986348      0.8476       
        62   0.005767373    213.51013      3.1821657      1.1753411     -9.3330507     -8.1577096      5.5564244      0             -2.6012852      0.58088047    -3741.0902      3.7698794      49.522944      60.217443      63.78328       0.8476       
        63   0.005851809    223.24791      3.3272981      1.1724428     -9.2579816     -8.0855388      5.3389619      0             -2.746577       0.58072112    -3553.6142      3.7701498      49.424941      59.97704       62.249421      0.8476       
        64   0.005940043    234.64984      3.497233       1.1694392     -9.1812036     -8.0117644      5.0950622      0             -2.9167022      0.58053084    -3348.5343      3.7701372      49.092622      59.44593       60.391891      0.8476       
        65   0.006024298    247.51088      3.6889146      1.1663285     -9.1030224     -7.9366939      4.8280925      0             -3.1086014      0.5803132     -3127.0428      3.7698473      48.52755       58.626416      58.219379      0.8476       
        66   0.006106867    261.59658      3.8988485      1.1631094     -9.0237441     -7.8606347      4.5418585      0             -3.3187762      0.58007231    -2890.4406      3.7692873      47.732427      57.5222        55.742095      0.8476       
        67   0.00619933     276.64748      4.1231679      1.1597815     -8.9436736     -7.7838922      4.240537       0             -3.5433552      0.57981273    -2640.1254      3.7684659      46.711078      56.138371      52.971715      0.8476       
        68   0.006289684    292.38403      4.3577063      1.1563451     -8.8631133     -7.7067682      3.9286014      0             -3.7781668      0.57953941    -2377.5811      3.767393       45.468445      54.48138       49.921318      0.8476       
        69   0.00637265     308.51186      4.5980763      1.1528013     -8.7823612     -7.6295599      3.6107411      0             -4.0188187      0.57925757    -2104.3643      3.7660801      44.010558      52.559013      46.605313      0.8476       
        70   0.00647451     324.7274       4.8397535      1.1491519     -8.7017097     -7.5525578      3.2917769      0             -4.260781       0.57897259    -1822.0918      3.7645399      42.344513      50.380351      43.039366      0.8476       
        71   0.006611144    340.72367      5.0781626      1.1453993     -8.6214447     -7.4760454      2.9765727      0             -4.4994727      0.57868996    -1532.4266      3.7627862      40.478437      47.955732      39.240314      0.8476       
        72   0.006766842    356.1961       5.3087646      1.1415467     -8.541844      -7.4002973      2.6699478      0             -4.7303495      0.57841511    -1237.0642      3.7608341      38.421457      45.296699      35.908965      0.8476       
        73   0.006910635    370.84845      5.527144       1.1375978     -8.4631768     -7.325579       2.3765883      0             -4.9489906      0.57815335    -937.71844      3.7586997      36.183651      42.415949      33.149638      0.8476       
        74   0.007063711    384.39844      5.7290937      1.1335571     -8.3857026     -7.2521455      2.1009615      0             -5.151184       0.57790975    -636.10731      3.7564001      33.776008      39.327269      30.227725      0.8476       
        75   0.007234606    396.58322      5.9106962      1.1294296     -8.3096707     -7.180241       1.8472339      0             -5.3330071      0.57768903    -333.93957      3.7539531      31.210375      36.045477      28.27021       0.8476       
        76   0.007388818    407.16441      6.0683988      1.1252209     -8.2353195     -7.1100985      1.6191952      0             -5.4909033      0.57749551    -32.90115       3.7513776      28.499399      32.586346      30.335839      0.8476       
        77   0.007545872    415.93279      6.1990832      1.1209372     -8.162876      -7.0419388      1.4201886      0             -5.6217502      0.57733299     265.35747      3.748693       25.80438       28.96653       32.25767       0.8476       
        78   0.007698043    422.71234      6.3001259      1.1165849     -8.0925557     -6.9759708      1.2530496      0             -5.7229212      0.57720466     559.23333      3.7459193      24.546107      25.20349       34.027204      0.8476       
        79   0.007859655    427.36367      6.3694496      1.1121711     -8.0245619     -6.9123908      1.1200543      0             -5.7923365      0.5771131      847.18211      3.7454697      23.16537       21.315405      35.636681      0.8476       
        80   0.008014214    429.78684      6.4055647      1.1077033     -7.959086      -6.8513827      1.0228782      0             -5.8285045      0.57706019     1127.7283      3.7458911      21.669308      17.886615      37.079109      0.8476       
        81   0.008163682    429.92332      6.4075988      1.1031893     -7.8963069     -6.7931177      0.9625659      0             -5.8305518      0.57704704     1399.4742      3.7464014      21.504773      14.667654      38.348302      0.8476       
        82   0.008332187    427.75725      6.3753156      1.0986371     -7.8363914     -6.7377544      0.93951286     0             -5.7982415      0.57707404     1661.1079      3.7470107      22.938641      13.924922      39.438903      0.8476       
        83   0.008497655    423.31584      6.3091205      1.094055      -7.779494      -6.685439       0.95345929     0             -5.7319797      0.5771408      1911.4098      3.7477287      24.258263      14.650513      40.346408      0.8476       
        84   0.008646946    416.66895      6.210055       1.0894517     -7.7257567     -6.6363051      1.0034963      0             -5.6328088      0.57724617     2149.258       3.7485645      25.45701       15.296903      41.067187      0.8476       
        85   0.008740288    407.92792      6.0797782      1.0848358     -7.6753098     -6.590474       1.0880841      0             -5.5023899      0.57738827     2373.6322      3.7495268      26.528835      15.861142      41.598497      0.8476       
        86   0.008862209    397.2435       5.920537       1.0802161     -7.6282712     -6.548055       1.2050825      0             -5.3429725      0.57756449     2583.6169      3.7506236      27.468299      16.340706      41.938491      0.8476       
        87   0.008965034    384.8031       5.7351247      1.0756016     -7.5847469     -6.5091453      1.3517921      0             -5.1573531      0.57777159     2778.4024      3.7518624      28.270601      16.733505      42.086229      0.8476       
        88   0.009051301    370.82733      5.5268292      1.0710011     -7.5448312     -6.4738301      1.5250066      0             -4.9488235      0.57800572     2957.285       3.7532501      28.931602      17.037894      42.041676      0.8476       
        89   0.009137301    355.56589      5.2993718      1.0664236     -7.5086067     -6.4421831      1.7210738      0             -4.7211093      0.57826252     3119.6665      3.754793       29.447848      20.109526      45.39414       0.8476       
        90   0.009241849    339.29283      5.0568374      1.0618777     -7.4761442     -6.4142665      1.9359662      0             -4.4783003      0.57853717     3265.052       3.7564965      29.816582      24.058838      49.598524      0.8476       
        91   0.009332198    322.30151      4.8035979      1.0573723     -7.4475032     -6.3901309      2.1653575      0             -4.2247734      0.5788245      3393.0469      3.7583655      30.035766      27.892627      53.610309      0.8476       
        92   0.009417236    304.89898      4.5442297      1.0529158     -7.4227313     -6.3698156      2.404705       0             -3.9651106      0.57911912     3503.353       3.7604039      30.104088      31.591932      57.411853      0.8476       
        93   0.009506343    287.40021      4.2834272      1.0485165     -7.401865      -6.3533486      2.6493368      0             -3.7040118      0.57941545     3595.7643      3.762615       30.020967      35.138407      60.98654       0.8476       
        94   0.009592085    270.12217      4.0259145      1.0441825     -7.384929      -6.3407465      2.89454        0             -3.4462066      0.57970789     3670.1611      3.7650013      29.786564      38.514416      64.318849      0.8476       
        95   0.009677533    253.37777      3.7763551      1.0399217     -7.3719365     -6.3320149      3.1356507      0             -3.1963642      0.5799909      3726.5054      3.7675644      30.257703      41.703118      67.394414      0.8476       
        96   0.009761808    237.46995      3.5392641      1.0357414     -7.362889      -6.3271475      3.3681425      0             -2.959005       0.58025909     3764.8341      3.7703052      32.611486      44.688549      70.200084      0.8476       
        97   0.00985092     222.6859       3.3189219      1.031649      -7.3577759     -6.3261269      3.5877124      0             -2.7384145      0.58050737     3785.2532      3.7732238      34.78904       47.455705      72.723966      0.8476       
        98   0.009937676    209.29162      3.1192929      1.0276512     -7.3565751     -6.3289238      3.790362       0             -2.5385619      0.58073101     3787.9318      3.7763192      36.779137      49.990618      74.955474      0.8476       
        99   0.01002271     197.52682      2.9439497      1.0237544     -7.3592517     -6.3354973      3.9724734      0             -2.3630239      0.58092573     3773.096       3.7795899      38.571494      52.280425      76.885367      0.8476       
       100   0.010107748    187.60034      2.7960049      1.0199646     -7.3657588     -6.3457942      4.1308771      0             -2.2149171      0.58108781     3741.023       3.7830333      40.156828      54.313433      78.505775      0.8476       
Loop time of 0.0101317 on 1 procs for 100 steps with 6 atoms

Performance: 85.277 ns/day, 0.281 hours/ns, 9869.971 timesteps/s
87.3% CPU use with 1 MPI tasks x no OpenMP threads

MPI task timing breakdown:
Section |  min time  |  avg time  |  max time  |%varavg| %total
---------------------------------------------------------------
Pair    | 0.00016668 | 0.00016668 | 0.00016668 |   0.0 |  1.65
Bond    | 0.00014462 | 0.00014462 | 0.00014462 |   0.0 |  1.43
Neigh   | 0          | 0          | 0          |   0.0 |  0.00
Comm    | 0.00014401 | 0.00014401 | 0.00014401 |   0.0 |  1.42
Output  | 0.0095231  | 0.0095231  | 0.0095231  |   0.0 | 93.99
Modify  | 5.49e-05   | 5.49e-05   | 5.49e-05   |   0.0 |  0.54
Other   |            | 9.839e-05  |            |       |  0.97

Nlocal:              6 ave           6 max           6 min
Histogram: 1 0 0 0 0 0 0 0 0 0
Nghost:            138 ave         138 max         138 min
Histogram: 1 0 0 0 0 0 0 0 0 0
Neighs:             11 ave          11 max          11 min
Histogram: 1 0 0 0 0 0 0 0 0 0

Total # of neighbors = 11
Ave neighs/atom = 1.8333333
Ave special neighs/atom = 2
Neighbor list builds = 0
Dangerous builds = 0
Total wall time: 0:00:00
